     Program PWSCF v.5.2.0 starts on 26Oct2020 at 20:10: 9

     Current dimensions of program PWSCF are:
     Max number of different atomic species (ntypx) = 10
     Max number of k-points (npk) =  40000
     Max angular momentum in pseudopotentials (lmaxx) =  3

     IMPORTANT: XC functional enforced from input :
     Exchange-correlation      = PBE ( 1  4  3  4 0 0)
     Any further DFT definition will be discarded
     Please, verify this is what you really want

               file Fe_PSEUDO: wavefunction(s)  3P 3D renormalized
               file N_PSEUDO: wavefunction(s)  2S renormalized

     Subspace diagonalization in iterative solution of the eigenvalue problem:
     a serial algorithm will be used

     Generating pointlists ...
     new r_m :   0.2063 (alat units)  1.4318 (a.u.) for type    1
     new r_m :   0.2063 (alat units)  1.4318 (a.u.) for type    2

     bravais-lattice index     =            0
     lattice parameter (alat)  =       6.9422  a.u.
     unit-cell volume          =     334.5777 (a.u.)^3
     number of atoms/cell      =            5
     number of atomic types    =            2
     number of electrons       =        69.00
     number of Kohn-Sham states=           42
     kinetic-energy cutoff     =      71.0000  Ry
     charge density cutoff     =     496.0000  Ry
     convergence threshold     =      1.0E-08
     mixing beta               =       0.7000
     number of iterations used =            8  plain     mixing
     Exchange-correlation      = PBE ( 1  4  3  4 0 0)

     celldm(1)=   6.942230  celldm(2)=   0.000000  celldm(3)=   0.000000
     celldm(4)=   0.000000  celldm(5)=   0.000000  celldm(6)=   0.000000

     crystal axes: (cart. coord. in units of alat)
               a(1) = (   1.000000   0.000000   0.000000 )
               a(2) = (   0.000000   1.000000   0.000000 )
               a(3) = (   0.000000   0.000000   1.000000 )

     reciprocal axes: (cart. coord. in units 2 pi/alat)
               b(1) = (  1.000000  0.000000  0.000000 )
               b(2) = (  0.000000  1.000000  0.000000 )
               b(3) = (  0.000000  0.000000  1.000000 )

     PseudoPot. # 1 for Fe read from file:
     pseudo/Fe_PSEUDO
     MD5 check sum: e30d5f36a6f0cb983ee41abee56170da
     Pseudo is Projector augmented-wave + core cor, Zval = 16.0
     Generated using "atomic" code by A. Dal Corso  v.6.3
     Shape of augmentation charge: PSQ
     Using radial grid of 1191 points,  6 beta functions with:
                l(1) =   0
                l(2) =   0
                l(3) =   1
                l(4) =   1
                l(5) =   2
                l(6) =   2
     Q(r) pseudized with 0 coefficients

     PseudoPot. # 2 for  N read from file:
     pseudo/N_PSEUDO
     MD5 check sum: 14c48229446f9f2d411169a3abcbc3fa
     Pseudo is Projector augmented-wave + core cor, Zval =  5.0
     Generated using "atomic" code by A. Dal Corso  v.6.3
     Shape of augmentation charge: PSQ
     Using radial grid of 1085 points,  4 beta functions with:
                l(1) =   0
                l(2) =   0
                l(3) =   1
                l(4) =   1
     Q(r) pseudized with 0 coefficients

     atomic species   valence    mass     pseudopotential
        Fe            16.00    55.84500     Fe( 1.00)
        N              5.00    14.00650      N( 1.00)

     Starting magnetic structure
     atomic species   magnetization
        Fe           0.500
        N           -0.010

     48 Sym. Ops., with inversion, found

   Cartesian axes

     site n.     atom                  positions (alat units)
         1           Fe  tau(   1) = (   0.0000000   0.5000000   0.5000000  )
         2           Fe  tau(   2) = (   0.5000000   0.5000000   0.0000000  )
         3           Fe  tau(   3) = (   0.5000000   0.0000000   0.5000000  )
         4           Fe  tau(   4) = (   0.0000000   0.0000000   0.0000000  )
         5           N   tau(   5) = (   0.5000000   0.5000000   0.5000000  )

     number of k points=   112  Marzari-Vanderbilt smearing, width (Ry)=  0.0050

     Number of k-points >= 100: set verbosity='high' to print them.

     Largest allocated arrays     est. size (Mb)     dimensions
     Largest temporary arrays     est. size (Mb)     dimensions

     Check: negative/imaginary core charge=   -0.000002    0.000000

     Initial potential from superposition of free atoms

     starting charge   68.99837, renormalised to   69.00000
     Starting wfc are   44 randomized atomic wfcs
     Checking if some PAW data can be deallocated...

     Self-consistent Calculation

     iteration #  1     ecut=    71.00 Ry     beta=0.70
     Davidson diagonalization with overlap
     ethr =  1.00E-02,  avg # of iterations =  3.1

     negative rho (up, down):  0.000E+00 1.031E-03

     Magnetic moment per site:
     atom:    1    charge:   12.7302    magn:    4.0930    constr:    0.0000
     atom:    2    charge:   12.7302    magn:    4.0930    constr:    0.0000
     atom:    3    charge:   12.7302    magn:    4.0930    constr:    0.0000
     atom:    4    charge:   12.6166    magn:    4.1645    constr:    0.0000
     atom:    5    charge:    4.6300    magn:    0.1121    constr:    0.0000

     total energy              =   -1344.13247059 Ry
     Harris-Foulkes estimate   =   -1343.41869155 Ry
     estimated scf accuracy    <       2.86211160 Ry

     total magnetization       =    13.83 Bohr mag/cell
     absolute magnetization    =    14.02 Bohr mag/cell

[...]

     total energy              =   -1345.14180443 Ry
     Harris-Foulkes estimate   =   -1345.14180451 Ry
     estimated scf accuracy    <       0.00000017 Ry

[...]

     iteration # 19     ecut=    71.00 Ry     beta=0.70
     Davidson diagonalization with overlap
     ethr =  2.52E-10,  avg # of iterations =  2.9

     negative rho (up, down):  0.000E+00 3.255E-04

     Magnetic moment per site:
     atom:    1    charge:   12.8358    magn:    1.4808    constr:    0.0000
     atom:    2    charge:   12.8358    magn:    1.4808    constr:    0.0000
     atom:    3    charge:   12.8358    magn:    1.4808    constr:    0.0000
     atom:    4    charge:   12.7726    magn:    2.6562    constr:    0.0000
     atom:    5    charge:    4.0935    magn:   -0.0068    constr:    0.0000

     End of self-consistent calculation

     Number of k-points >= 100: set verbosity='high' to print the bands.

     the Fermi energy is    18.7263 ev

!    total energy              =   -1345.14180462 Ry
     Harris-Foulkes estimate   =   -1345.14180462 Ry
     estimated scf accuracy    <          1.4E-09 Ry

     total all-electron energy =    -10291.743440 Ry

     The total energy is the sum of the following terms:

     one-electron contribution =    -446.69902043 Ry
     hartree contribution      =     269.16575661 Ry
     xc contribution           =    -117.07082134 Ry
     ewald contribution        =    -711.61403732 Ry
     one-center paw contrib.   =    -338.92393317 Ry
     smearing contrib. (-TS)   =       0.00025103 Ry

     total magnetization       =     7.66 Bohr mag/cell
     absolute magnetization    =     8.01 Bohr mag/cell

     convergence has been achieved in  19 iterations

     Forces acting on atoms (Ry/au):

     negative rho (up, down):  0.000E+00 3.255E-04
     atom    1 type  1   force =     0.00000000    0.00000000    0.00000000
     atom    2 type  1   force =     0.00000000    0.00000000    0.00000000
     atom    3 type  1   force =     0.00000000    0.00000000    0.00000000
     atom    4 type  1   force =     0.00000000    0.00000000    0.00000000
     atom    5 type  2   force =     0.00000000    0.00000000    0.00000000

     Total force =     0.000000     Total SCF correction =     0.000000

     entering subroutine stress ...

     negative rho (up, down):  0.000E+00 3.255E-04
          total   stress  (Ry/bohr**3)                   (kbar)     P=  104.13
   0.00070786   0.00000000   0.00000000        104.13      0.00      0.00
   0.00000000   0.00070786   0.00000000          0.00    104.13      0.00
   0.00000000   0.00000000   0.00070786          0.00      0.00    104.13

     Writing output data file config.save

     General routines

     Parallel routines

     PAW routines

   This run was terminated on:  20:13: 2  26Oct2020

   JOB DONE.