     Program PWSCF v.5.2.0 starts on 26Oct2020 at 20:23: 9

     Current dimensions of program PWSCF are:
     Max number of different atomic species (ntypx) = 10
     Max number of k-points (npk) =  40000
     Max angular momentum in pseudopotentials (lmaxx) =  3

     IMPORTANT: XC functional enforced from input :
     Exchange-correlation      = PBE ( 1  4  3  4 0 0)
     Any further DFT definition will be discarded
     Please, verify this is what you really want

               file Fe_PSEUDO: wavefunction(s)  3P 3D renormalized
               file N_PSEUDO: wavefunction(s)  2S renormalized

     Subspace diagonalization in iterative solution of the eigenvalue problem:
     a serial algorithm will be used

     Generating pointlists ...
     new r_m :   0.2063 (alat units)  1.4318 (a.u.) for type    1
     new r_m :   0.2063 (alat units)  1.4318 (a.u.) for type    2

     bravais-lattice index     =            0
     lattice parameter (alat)  =       6.9422  a.u.
     unit-cell volume          =     334.5777 (a.u.)^3
     number of atoms/cell      =            5
     number of atomic types    =            2
     number of electrons       =        69.00
     number of Kohn-Sham states=           42
     kinetic-energy cutoff     =      71.0000  Ry
     charge density cutoff     =     496.0000  Ry
     convergence threshold     =      1.0E-08
     mixing beta               =       0.7000
     number of iterations used =            8  plain     mixing
     Exchange-correlation      = PBE ( 1  4  3  4 0 0)

     celldm(1)=   6.942230  celldm(2)=   0.000000  celldm(3)=   0.000000
     celldm(4)=   0.000000  celldm(5)=   0.000000  celldm(6)=   0.000000

     crystal axes: (cart. coord. in units of alat)
               a(1) = (   1.000000   0.000000   0.000000 )
               a(2) = (   0.000000   1.000000   0.000000 )
               a(3) = (   0.000000   0.000000   1.000000 )

     reciprocal axes: (cart. coord. in units 2 pi/alat)
               b(1) = (  1.000000  0.000000  0.000000 )
               b(2) = (  0.000000  1.000000  0.000000 )
               b(3) = (  0.000000  0.000000  1.000000 )

     PseudoPot. # 1 for Fe read from file:
     pseudo/Fe_PSEUDO
     MD5 check sum: e30d5f36a6f0cb983ee41abee56170da
     Pseudo is Projector augmented-wave + core cor, Zval = 16.0
     Generated using "atomic" code by A. Dal Corso  v.6.3
     Shape of augmentation charge: PSQ
     Using radial grid of 1191 points,  6 beta functions with:
                l(1) =   0
                l(2) =   0
                l(3) =   1
                l(4) =   1
                l(5) =   2
                l(6) =   2
     Q(r) pseudized with 0 coefficients

     PseudoPot. # 2 for  N read from file:
     pseudo/N_PSEUDO
     MD5 check sum: 14c48229446f9f2d411169a3abcbc3fa
     Pseudo is Projector augmented-wave + core cor, Zval =  5.0
     Generated using "atomic" code by A. Dal Corso  v.6.3
     Shape of augmentation charge: PSQ
     Using radial grid of 1085 points,  4 beta functions with:
                l(1) =   0
                l(2) =   0
                l(3) =   1
                l(4) =   1
     Q(r) pseudized with 0 coefficients

     atomic species   valence    mass     pseudopotential
        Fe            16.00    55.84500     Fe( 1.00)
        N              5.00    14.00650      N( 1.00)

     Starting magnetic structure
     atomic species   magnetization
        Fe           0.500
        N           -0.010

     48 Sym. Ops., with inversion, found

   Cartesian axes

     site n.     atom                  positions (alat units)
         1           Fe  tau(   1) = (   0.0000000   0.5000000   0.5000000  )
         2           Fe  tau(   2) = (   0.5000000   0.5000000   0.0000000  )
         3           Fe  tau(   3) = (   0.5000000   0.0000000   0.5000000  )
         4           Fe  tau(   4) = (   0.0000000   0.0000000   0.0000000  )
         5           N   tau(   5) = (   0.5000000   0.5000000   0.5000000  )

     number of k points=    40  Marzari-Vanderbilt smearing, width (Ry)=  0.0050
                       cart. coord. in units 2pi/alat
        k(    1) = (   0.0000000   0.0000000   0.0000000), wk =   0.0029155
        k(    2) = (   0.0000000   0.0000000   0.1428571), wk =   0.0174927
        k(    3) = (   0.0000000   0.0000000   0.2857143), wk =   0.0174927
        k(    4) = (   0.0000000   0.0000000   0.4285714), wk =   0.0174927
        k(    5) = (   0.0000000   0.1428571   0.1428571), wk =   0.0349854
        k(    6) = (   0.0000000   0.1428571   0.2857143), wk =   0.0699708
        k(    7) = (   0.0000000   0.1428571   0.4285714), wk =   0.0699708
        k(    8) = (   0.0000000   0.2857143   0.2857143), wk =   0.0349854
        k(    9) = (   0.0000000   0.2857143   0.4285714), wk =   0.0699708
        k(   10) = (   0.0000000   0.4285714   0.4285714), wk =   0.0349854
        k(   11) = (   0.1428571   0.1428571   0.1428571), wk =   0.0233236
        k(   12) = (   0.1428571   0.1428571   0.2857143), wk =   0.0699708
        k(   13) = (   0.1428571   0.1428571   0.4285714), wk =   0.0699708
        k(   14) = (   0.1428571   0.2857143   0.2857143), wk =   0.0699708
        k(   15) = (   0.1428571   0.2857143   0.4285714), wk =   0.1399417
        k(   16) = (   0.1428571   0.4285714   0.4285714), wk =   0.0699708
        k(   17) = (   0.2857143   0.2857143   0.2857143), wk =   0.0233236
        k(   18) = (   0.2857143   0.2857143   0.4285714), wk =   0.0699708
        k(   19) = (   0.2857143   0.4285714   0.4285714), wk =   0.0699708
        k(   20) = (   0.4285714   0.4285714   0.4285714), wk =   0.0233236
        k(   21) = (   0.0000000   0.0000000   0.0000000), wk =   0.0029155
        k(   22) = (   0.0000000   0.0000000   0.1428571), wk =   0.0174927
        k(   23) = (   0.0000000   0.0000000   0.2857143), wk =   0.0174927
        k(   24) = (   0.0000000   0.0000000   0.4285714), wk =   0.0174927
        k(   25) = (   0.0000000   0.1428571   0.1428571), wk =   0.0349854
        k(   26) = (   0.0000000   0.1428571   0.2857143), wk =   0.0699708
        k(   27) = (   0.0000000   0.1428571   0.4285714), wk =   0.0699708
        k(   28) = (   0.0000000   0.2857143   0.2857143), wk =   0.0349854
        k(   29) = (   0.0000000   0.2857143   0.4285714), wk =   0.0699708
        k(   30) = (   0.0000000   0.4285714   0.4285714), wk =   0.0349854
        k(   31) = (   0.1428571   0.1428571   0.1428571), wk =   0.0233236
        k(   32) = (   0.1428571   0.1428571   0.2857143), wk =   0.0699708
        k(   33) = (   0.1428571   0.1428571   0.4285714), wk =   0.0699708
        k(   34) = (   0.1428571   0.2857143   0.2857143), wk =   0.0699708
        k(   35) = (   0.1428571   0.2857143   0.4285714), wk =   0.1399417
        k(   36) = (   0.1428571   0.4285714   0.4285714), wk =   0.0699708
        k(   37) = (   0.2857143   0.2857143   0.2857143), wk =   0.0233236
        k(   38) = (   0.2857143   0.2857143   0.4285714), wk =   0.0699708
        k(   39) = (   0.2857143   0.4285714   0.4285714), wk =   0.0699708
        k(   40) = (   0.4285714   0.4285714   0.4285714), wk =   0.0233236

     Largest allocated arrays     est. size (Mb)     dimensions
     Largest temporary arrays     est. size (Mb)     dimensions

     Check: negative/imaginary core charge=   -0.000002    0.000000

     Initial potential from superposition of free atoms

     starting charge   68.99837, renormalised to   69.00000
     Starting wfc are   44 randomized atomic wfcs
     Checking if some PAW data can be deallocated...

     Self-consistent Calculation

     iteration #  1     ecut=    71.00 Ry     beta=0.70
     Davidson diagonalization with overlap
     ethr =  1.00E-02,  avg # of iterations =  3.1

     negative rho (up, down):  0.000E+00 1.038E-03

     Magnetic moment per site:
     atom:    1    charge:   12.7262    magn:    4.0987    constr:    0.0000
     atom:    2    charge:   12.7262    magn:    4.0987    constr:    0.0000
     atom:    3    charge:   12.7262    magn:    4.0987    constr:    0.0000
     atom:    4    charge:   12.6209    magn:    4.1652    constr:    0.0000
     atom:    5    charge:    4.6296    magn:    0.1111    constr:    0.0000

     total energy              =   -1344.13082052 Ry
     Harris-Foulkes estimate   =   -1343.41954996 Ry
     estimated scf accuracy    <       2.85155567 Ry

     total magnetization       =    13.88 Bohr mag/cell
     absolute magnetization    =    14.05 Bohr mag/cell

[...]

     total energy              =   -1345.14171825 Ry
     Harris-Foulkes estimate   =   -1345.14171836 Ry
     estimated scf accuracy    <       0.00000002 Ry

[...]

     iteration # 21     ecut=    71.00 Ry     beta=0.70
     Davidson diagonalization with overlap
     ethr =  2.76E-11,  avg # of iterations =  3.2

     negative rho (up, down):  0.000E+00 3.206E-04

     Magnetic moment per site:
     atom:    1    charge:   12.8365    magn:    1.4122    constr:    0.0000
     atom:    2    charge:   12.8365    magn:    1.4122    constr:    0.0000
     atom:    3    charge:   12.8365    magn:    1.4122    constr:    0.0000
     atom:    4    charge:   12.7710    magn:    2.6569    constr:    0.0000
     atom:    5    charge:    4.0909    magn:   -0.0119    constr:    0.0000

     End of self-consistent calculation

 ------ SPIN UP ------------

          k = 0.0000 0.0000 0.0000 (  3407 PWs)   bands (ev):

   -69.9666 -69.2212 -69.1664 -69.1664 -36.0212 -36.0212 -36.0212 -35.5741
   -35.5741 -35.5741 -35.1166 -35.1166 -35.1166 -35.1112 -35.1112 -35.1112
     0.3321  11.4379  13.3162  13.3162  13.3162  13.8537  13.8537  14.1270
    14.1270  14.1270  16.1096  16.1096  16.1096  17.2341  17.2341  17.8714
    17.8714  18.4459  18.4459  18.4459  18.4914  18.4914  18.4914  18.5139
    21.9219  23.7527

[...]

 ------ SPIN DOWN ----------

[...]

          k = 0.4286 0.4286 0.4286 (  3382 PWs)   bands (ev):

   -67.3794 -67.3766 -67.3766 -66.5562 -34.2706 -33.9179 -33.9179 -33.3731
   -33.3731 -33.3712 -33.1611 -33.1611 -33.1598 -32.6583 -32.6551 -32.6551
     2.3319  10.1024  10.1024  10.1379  14.9077  16.1810  16.3274  16.3274
    17.8140  17.8140  17.8932  17.8969  17.8969  18.0063  18.3532  18.3532
    19.9360  20.0289  20.0289  20.2245  20.3303  20.3303  20.7955  20.7955
    22.6340  22.6340

     the Fermi energy is    18.7342 ev

!    total energy              =   -1345.14171838 Ry
     Harris-Foulkes estimate   =   -1345.14171838 Ry
     estimated scf accuracy    <          4.0E-10 Ry

     total all-electron energy =    -10291.743354 Ry

     The total energy is the sum of the following terms:

     one-electron contribution =    -446.70157305 Ry
     hartree contribution      =     269.14993677 Ry
     xc contribution           =    -117.05137245 Ry
     ewald contribution        =    -711.61403732 Ry
     one-center paw contrib.   =    -338.92450898 Ry
     smearing contrib. (-TS)   =      -0.00016337 Ry

     total magnetization       =     7.43 Bohr mag/cell
     absolute magnetization    =     7.79 Bohr mag/cell

     convergence has been achieved in  21 iterations

     Forces acting on atoms (Ry/au):

     negative rho (up, down):  0.000E+00 3.206E-04
     atom    1 type  1   force =     0.00000000    0.00000000    0.00000000
     atom    2 type  1   force =     0.00000000    0.00000000    0.00000000
     atom    3 type  1   force =     0.00000000    0.00000000    0.00000000
     atom    4 type  1   force =     0.00000000    0.00000000    0.00000000
     atom    5 type  2   force =     0.00000000    0.00000000    0.00000000

     Total force =     0.000000     Total SCF correction =     0.000000

     entering subroutine stress ...

     negative rho (up, down):  0.000E+00 3.206E-04
          total   stress  (Ry/bohr**3)                   (kbar)     P=   95.04
   0.00064606   0.00000000   0.00000000         95.04      0.00      0.00
   0.00000000   0.00064606   0.00000000          0.00     95.04      0.00
   0.00000000   0.00000000   0.00064606          0.00      0.00     95.04

     Writing output data file config.save

     General routines

     Parallel routines

     PAW routines

   This run was terminated on:  20:24:26  26Oct2020

   JOB DONE.