     Program PWSCF v.6.5 starts on 23Nov2020 at 19: 9:29

     R & G space division:  proc/nbgrp/npool/nimage =      24
     Reading input from X5P2/0.in

     Current dimensions of program PWSCF are:
     Max number of different atomic species (ntypx) = 10
     Max number of k-points (npk) =  40000
     Max angular momentum in pseudopotentials (lmaxx) =  3

     IMPORTANT: XC functional enforced from input :
     Exchange-correlation= PBE
                           (   1   4   3   4   0   0   0)
     Any further DFT definition will be discarded
     Please, verify this is what you really want

               file Fe.pbe-spn-kjpaw_psl.0.2.1.UPF: wavefunction(s)  3D renormalized

     Message from routine setup:
     using ibrav=0 with symmetry is DISCOURAGED, use correct ibrav instead

     bravais-lattice index     =            0
     lattice parameter (alat)  =      12.3840  a.u.
     unit-cell volume          =     669.2381 (a.u.)^3
     number of atoms/cell      =           10
     number of atomic types    =            2
     number of electrons       =       138.00
     number of Kohn-Sham states=           83
     kinetic-energy cutoff     =     140.0000  Ry
     charge density cutoff     =     980.0000  Ry
     convergence threshold     =      2.0E-09
     mixing beta               =       0.4000
     number of iterations used =            8  plain     mixing
     Exchange-correlation= PBE
                           (   1   4   3   4   0   0   0)
     nstep                     =           50

     celldm(1)=  12.383961  celldm(2)=   0.000000  celldm(3)=   0.000000
     celldm(4)=   0.000000  celldm(5)=   0.000000  celldm(6)=   0.000000

     crystal axes: (cart. coord. in units of alat)
               a(1) = (   1.000000   0.000000   0.000000 )
               a(2) = (   0.000000   0.579278   0.000000 )
               a(3) = (   0.000000   0.000000   0.608296 )

     reciprocal axes: (cart. coord. in units 2 pi/alat)
               b(1) = (  1.000000  0.000000  0.000000 )
               b(2) = (  0.000000  1.726286  0.000000 )
               b(3) = (  0.000000  0.000000  1.643937 )

     PseudoPot. # 1 for Fe read from file:
     pseudo/Fe.pbe-spn-kjpaw_psl.0.2.1.UPF
     MD5 check sum: e86618425769142926afa95317d90200
     Pseudo is Projector augmented-wave + core cor, Zval = 16.0
     Generated using "atomic" code by A. Dal Corso v.5.0.99 svn rev. 10869
     Shape of augmentation charge: PSQ
     Using radial grid of 1191 points,  6 beta functions with:
                l(1) =   0
                l(2) =   0
                l(3) =   1
                l(4) =   1
                l(5) =   2
                l(6) =   2
     Q(r) pseudized with 0 coefficients

     PseudoPot. # 2 for N  read from file:
     pseudo/N.pbe-n-radius_5.UPF
     MD5 check sum: 16739722b17309cd8fe442a2ace49922
     Pseudo is Ultrasoft + core correction, Zval =  5.0
     Generated using "atomic" code by A. Dal Corso v.5.1
     Using radial grid of 1085 points,  4 beta functions with:
                l(1) =   0
                l(2) =   0
                l(3) =   1
                l(4) =   1
     Q(r) pseudized with 0 coefficients

     atomic species   valence    mass     pseudopotential
        Fe            16.00    55.84500     Fe( 1.00)
        N              5.00    14.00650     N ( 1.00)

      8 Sym. Ops., with inversion, found ( 4 have fractional translation)

                                    s                        frac. trans.

      isym =  1     identity

 cryst.   s( 1) = (     1          0          0      )
                  (     0          1          0      )
                  (     0          0          1      )

 cart.    s( 1) = (  1.0000000  0.0000000  0.0000000 )
                  (  0.0000000  1.0000000  0.0000000 )
                  (  0.0000000  0.0000000  1.0000000 )

      isym =  2     180 deg rotation - cart. axis [0,0,1]

 cryst.   s( 2) = (    -1          0          0      )    f =(  0.5000000 )
                  (     0         -1          0      )       (  0.0000000 )
                  (     0          0          1      )       (  0.0000000 )

 cart.    s( 2) = ( -1.0000000  0.0000000  0.0000000 )    f =(  0.5000000 )
                  (  0.0000000 -1.0000000  0.0000000 )       (  0.0000000 )
                  (  0.0000000  0.0000000  1.0000000 )       (  0.0000000 )

[...]

      isym =  5     inversion

[...]

      isym =  6     inv. 180 deg rotation - cart. axis [0,0,1]

[...]

   Cartesian axes

     site n.     atom                  positions (alat units)
         1           Fe  tau(   1) = (   0.2500000   0.0000000   0.2456055  )
         2           Fe  tau(   2) = (   0.7500000   0.0000000   0.3626902  )
         3           Fe  tau(   3) = (   0.2500000   0.2896391   0.5497533  )
         4           Fe  tau(   4) = (   0.7500000   0.2896391   0.0585424  )
         5           Fe  tau(   5) = (   0.0000000   0.2896391   0.3041478  )
         6           Fe  tau(   6) = (   0.5000000   0.2896391   0.3041478  )
         7           Fe  tau(   7) = (   0.0000000   0.0000000   0.0000000  )
         8           Fe  tau(   8) = (   0.5000000   0.0000000   0.0000000  )
         9           N   tau(   9) = (   0.2500000   0.2896391   0.2456055  )
        10           N   tau(  10) = (   0.7500000   0.2896391   0.3626902  )

   Crystallographic axes

     site n.     atom                  positions (cryst. coord.)
         1           Fe  tau(   1) = (  0.2500000  0.0000000  0.4037600  )
         2           Fe  tau(   2) = (  0.7500000  0.0000000  0.5962400  )
         3           Fe  tau(   3) = (  0.2500000  0.5000000  0.9037600  )
         4           Fe  tau(   4) = (  0.7500000  0.5000000  0.0962400  )
         5           Fe  tau(   5) = (  0.0000000  0.5000000  0.5000000  )
         6           Fe  tau(   6) = (  0.5000000  0.5000000  0.5000000  )
         7           Fe  tau(   7) = (  0.0000000  0.0000000  0.0000000  )
         8           Fe  tau(   8) = (  0.5000000  0.0000000  0.0000000  )
         9           N   tau(   9) = (  0.2500000  0.5000000  0.4037600  )
        10           N   tau(  10) = (  0.7500000  0.5000000  0.5962400  )

     number of k points=    75  Marzari-Vanderbilt smearing, width (Ry)=  0.0147
                       cart. coord. in units 2pi/alat
        k(    1) = (   0.0000000   0.0000000   0.0000000), wk =   0.0055556
        k(    2) = (   0.0000000   0.0000000   0.2054922), wk =   0.0111111
        k(    3) = (   0.0000000   0.0000000   0.4109844), wk =   0.0111111
        k(    4) = (   0.0000000   0.0000000   0.6164765), wk =   0.0111111
        k(    5) = (   0.0000000   0.0000000  -0.8219687), wk =   0.0055556
        k(    6) = (   0.0000000   0.1918096   0.0000000), wk =   0.0111111
        k(    7) = (   0.0000000   0.1918096   0.2054922), wk =   0.0222222
        k(    8) = (   0.0000000   0.1918096   0.4109844), wk =   0.0222222
        k(    9) = (   0.0000000   0.1918096   0.6164765), wk =   0.0222222
        k(   10) = (   0.0000000   0.1918096  -0.8219687), wk =   0.0111111
        k(   11) = (   0.0000000   0.3836191   0.0000000), wk =   0.0111111
        k(   12) = (   0.0000000   0.3836191   0.2054922), wk =   0.0222222
        k(   13) = (   0.0000000   0.3836191   0.4109844), wk =   0.0222222
        k(   14) = (   0.0000000   0.3836191   0.6164765), wk =   0.0222222
        k(   15) = (   0.0000000   0.3836191  -0.8219687), wk =   0.0111111
        k(   16) = (   0.0000000   0.5754287   0.0000000), wk =   0.0111111
        k(   17) = (   0.0000000   0.5754287   0.2054922), wk =   0.0222222
        k(   18) = (   0.0000000   0.5754287   0.4109844), wk =   0.0222222
        k(   19) = (   0.0000000   0.5754287   0.6164765), wk =   0.0222222
        k(   20) = (   0.0000000   0.5754287  -0.8219687), wk =   0.0111111
        k(   21) = (   0.0000000   0.7672383   0.0000000), wk =   0.0111111
        k(   22) = (   0.0000000   0.7672383   0.2054922), wk =   0.0222222
        k(   23) = (   0.0000000   0.7672383   0.4109844), wk =   0.0222222
        k(   24) = (   0.0000000   0.7672383   0.6164765), wk =   0.0222222
        k(   25) = (   0.0000000   0.7672383  -0.8219687), wk =   0.0111111
        k(   26) = (   0.2000000   0.0000000   0.0000000), wk =   0.0111111
        k(   27) = (   0.2000000   0.0000000   0.2054922), wk =   0.0222222
        k(   28) = (   0.2000000   0.0000000   0.4109844), wk =   0.0222222
        k(   29) = (   0.2000000   0.0000000   0.6164765), wk =   0.0222222
        k(   30) = (   0.2000000   0.0000000  -0.8219687), wk =   0.0111111
        k(   31) = (   0.2000000   0.1918096   0.0000000), wk =   0.0222222
        k(   32) = (   0.2000000   0.1918096   0.2054922), wk =   0.0444444
        k(   33) = (   0.2000000   0.1918096   0.4109844), wk =   0.0444444
        k(   34) = (   0.2000000   0.1918096   0.6164765), wk =   0.0444444
        k(   35) = (   0.2000000   0.1918096  -0.8219687), wk =   0.0222222
        k(   36) = (   0.2000000   0.3836191   0.0000000), wk =   0.0222222
        k(   37) = (   0.2000000   0.3836191   0.2054922), wk =   0.0444444
        k(   38) = (   0.2000000   0.3836191   0.4109844), wk =   0.0444444
        k(   39) = (   0.2000000   0.3836191   0.6164765), wk =   0.0444444
        k(   40) = (   0.2000000   0.3836191  -0.8219687), wk =   0.0222222
        k(   41) = (   0.2000000   0.5754287   0.0000000), wk =   0.0222222
        k(   42) = (   0.2000000   0.5754287   0.2054922), wk =   0.0444444
        k(   43) = (   0.2000000   0.5754287   0.4109844), wk =   0.0444444
        k(   44) = (   0.2000000   0.5754287   0.6164765), wk =   0.0444444
        k(   45) = (   0.2000000   0.5754287  -0.8219687), wk =   0.0222222
        k(   46) = (   0.2000000   0.7672383   0.0000000), wk =   0.0222222
        k(   47) = (   0.2000000   0.7672383   0.2054922), wk =   0.0444444
        k(   48) = (   0.2000000   0.7672383   0.4109844), wk =   0.0444444
        k(   49) = (   0.2000000   0.7672383   0.6164765), wk =   0.0444444
        k(   50) = (   0.2000000   0.7672383  -0.8219687), wk =   0.0222222
        k(   51) = (   0.4000000   0.0000000   0.0000000), wk =   0.0111111
        k(   52) = (   0.4000000   0.0000000   0.2054922), wk =   0.0222222
        k(   53) = (   0.4000000   0.0000000   0.4109844), wk =   0.0222222
        k(   54) = (   0.4000000   0.0000000   0.6164765), wk =   0.0222222
        k(   55) = (   0.4000000   0.0000000  -0.8219687), wk =   0.0111111
        k(   56) = (   0.4000000   0.1918096   0.0000000), wk =   0.0222222
        k(   57) = (   0.4000000   0.1918096   0.2054922), wk =   0.0444444
        k(   58) = (   0.4000000   0.1918096   0.4109844), wk =   0.0444444
        k(   59) = (   0.4000000   0.1918096   0.6164765), wk =   0.0444444
        k(   60) = (   0.4000000   0.1918096  -0.8219687), wk =   0.0222222
        k(   61) = (   0.4000000   0.3836191   0.0000000), wk =   0.0222222
        k(   62) = (   0.4000000   0.3836191   0.2054922), wk =   0.0444444
        k(   63) = (   0.4000000   0.3836191   0.4109844), wk =   0.0444444
        k(   64) = (   0.4000000   0.3836191   0.6164765), wk =   0.0444444
[...]
        k(   16) = (   0.0000000   0.3333333   0.0000000), wk =   0.0111111
        k(   17) = (   0.0000000   0.3333333   0.1250000), wk =   0.0222222
        k(   18) = (   0.0000000   0.3333333   0.2500000), wk =   0.0222222
        k(   19) = (   0.0000000   0.3333333   0.3750000), wk =   0.0222222
        k(   20) = (   0.0000000   0.3333333  -0.5000000), wk =   0.0111111
        k(   21) = (   0.0000000   0.4444444   0.0000000), wk =   0.0111111
        k(   22) = (   0.0000000   0.4444444   0.1250000), wk =   0.0222222
        k(   23) = (   0.0000000   0.4444444   0.2500000), wk =   0.0222222
        k(   24) = (   0.0000000   0.4444444   0.3750000), wk =   0.0222222
        k(   25) = (   0.0000000   0.4444444  -0.5000000), wk =   0.0111111
        k(   26) = (   0.2000000   0.0000000   0.0000000), wk =   0.0111111
        k(   27) = (   0.2000000   0.0000000   0.1250000), wk =   0.0222222
        k(   28) = (   0.2000000   0.0000000   0.2500000), wk =   0.0222222
        k(   29) = (   0.2000000   0.0000000   0.3750000), wk =   0.0222222
        k(   30) = (   0.2000000   0.0000000  -0.5000000), wk =   0.0111111
        k(   31) = (   0.2000000   0.1111111   0.0000000), wk =   0.0222222
        k(   32) = (   0.2000000   0.1111111   0.1250000), wk =   0.0444444
        k(   33) = (   0.2000000   0.1111111   0.2500000), wk =   0.0444444
        k(   34) = (   0.2000000   0.1111111   0.3750000), wk =   0.0444444
        k(   35) = (   0.2000000   0.1111111  -0.5000000), wk =   0.0222222
        k(   36) = (   0.2000000   0.2222222   0.0000000), wk =   0.0222222
        k(   37) = (   0.2000000   0.2222222   0.1250000), wk =   0.0444444
        k(   38) = (   0.2000000   0.2222222   0.2500000), wk =   0.0444444
        k(   39) = (   0.2000000   0.2222222   0.3750000), wk =   0.0444444
        k(   40) = (   0.2000000   0.2222222  -0.5000000), wk =   0.0222222
        k(   41) = (   0.2000000   0.3333333   0.0000000), wk =   0.0222222
        k(   42) = (   0.2000000   0.3333333   0.1250000), wk =   0.0444444
        k(   43) = (   0.2000000   0.3333333   0.2500000), wk =   0.0444444
        k(   44) = (   0.2000000   0.3333333   0.3750000), wk =   0.0444444
        k(   45) = (   0.2000000   0.3333333  -0.5000000), wk =   0.0222222
        k(   46) = (   0.2000000   0.4444444   0.0000000), wk =   0.0222222
        k(   47) = (   0.2000000   0.4444444   0.1250000), wk =   0.0444444
        k(   48) = (   0.2000000   0.4444444   0.2500000), wk =   0.0444444
        k(   49) = (   0.2000000   0.4444444   0.3750000), wk =   0.0444444
        k(   50) = (   0.2000000   0.4444444  -0.5000000), wk =   0.0222222
        k(   51) = (   0.4000000   0.0000000   0.0000000), wk =   0.0111111
        k(   52) = (   0.4000000   0.0000000   0.1250000), wk =   0.0222222
        k(   53) = (   0.4000000   0.0000000   0.2500000), wk =   0.0222222
        k(   54) = (   0.4000000   0.0000000   0.3750000), wk =   0.0222222
        k(   55) = (   0.4000000   0.0000000  -0.5000000), wk =   0.0111111
        k(   56) = (   0.4000000   0.1111111   0.0000000), wk =   0.0222222
        k(   57) = (   0.4000000   0.1111111   0.1250000), wk =   0.0444444
        k(   58) = (   0.4000000   0.1111111   0.2500000), wk =   0.0444444
        k(   59) = (   0.4000000   0.1111111   0.3750000), wk =   0.0444444
        k(   60) = (   0.4000000   0.1111111  -0.5000000), wk =   0.0222222
        k(   61) = (   0.4000000   0.2222222   0.0000000), wk =   0.0222222
        k(   62) = (   0.4000000   0.2222222   0.1250000), wk =   0.0444444
        k(   63) = (   0.4000000   0.2222222   0.2500000), wk =   0.0444444
        k(   64) = (   0.4000000   0.2222222   0.3750000), wk =   0.0444444
        k(   65) = (   0.4000000   0.2222222  -0.5000000), wk =   0.0222222
        k(   66) = (   0.4000000   0.3333333   0.0000000), wk =   0.0222222
        k(   67) = (   0.4000000   0.3333333   0.1250000), wk =   0.0444444
        k(   68) = (   0.4000000   0.3333333   0.2500000), wk =   0.0444444
        k(   69) = (   0.4000000   0.3333333   0.3750000), wk =   0.0444444
        k(   70) = (   0.4000000   0.3333333  -0.5000000), wk =   0.0222222
        k(   71) = (   0.4000000   0.4444444   0.0000000), wk =   0.0222222
        k(   72) = (   0.4000000   0.4444444   0.1250000), wk =   0.0444444
        k(   73) = (   0.4000000   0.4444444   0.2500000), wk =   0.0444444
        k(   74) = (   0.4000000   0.4444444   0.3750000), wk =   0.0444444
        k(   75) = (   0.4000000   0.4444444  -0.5000000), wk =   0.0222222

     Check: negative core charge=   -0.000010

     Initial potential from superposition of free atoms

     starting charge  137.99648, renormalised to  138.00000
     Starting wfcs are  112 randomized atomic wfcs
     Checking if some PAW data can be deallocated...

     Self-consistent Calculation

     iteration #  1     ecut=   140.00 Ry     beta= 0.40
     Davidson diagonalization with overlap
     c_bands:  1 eigenvalues not converged
     c_bands:  1 eigenvalues not converged
     c_bands:  1 eigenvalues not converged
     c_bands:  1 eigenvalues not converged
     c_bands:  1 eigenvalues not converged
     c_bands:  1 eigenvalues not converged
     ethr =  1.00E-06,  avg # of iterations = 13.7

[...]

     total energy              =   -2674.38891030 Ry
     Harris-Foulkes estimate   =   -2674.38891030 Ry
     estimated scf accuracy    <          6.6E-11 Ry

     iteration # 19     ecut=   140.00 Ry     beta= 0.40
     Davidson diagonalization with overlap
     ethr =  1.00E-13,  avg # of iterations =  3.3

     End of self-consistent calculation

[...]

          k = 0.3592 0.7999-0.8815 ( 18680 PWs)   bands (ev):

   -68.6559 -68.6554 -68.6354 -68.6351 -68.6073 -68.6071 -68.0105 -68.0104
   -35.3168 -35.2812 -35.0688 -35.0336 -34.9592 -34.9586 -34.6620 -34.6591
   -34.6512 -34.6404 -34.6376 -34.6305 -34.5036 -34.4980 -34.4834 -34.4754
   -34.4240 -34.4239 -34.0960 -34.0946 -34.0653 -34.0614 -34.0593 -34.0555
     1.8319   2.0596   9.9018   9.9328  10.0952  10.1424  10.5246  11.1890
    14.4665  14.5804  15.4303  15.4337  15.6220  15.6425  15.8337  16.0120
    16.4720  16.4796  16.6704  16.7363  16.7450  16.7854  16.8151  16.9375
    16.9720  17.0651  17.1360  17.1422  17.2357  17.3314  17.4757  17.7085
    18.4356  18.4794  18.5546  18.6210  18.6877  18.7869  18.8309  18.8442
    18.9229  19.1447  19.4153  19.4159  19.6137  19.6385  20.2804  20.5555
    20.7480  21.2411  22.4686

     occupation numbers
     1.0000   1.0000   1.0000   1.0000   1.0000   1.0000   1.0000   1.0000
     1.0000   1.0000   1.0000   1.0000   1.0000   1.0000   1.0000   1.0000
     1.0000   1.0000   1.0000   1.0000   1.0000   1.0000   1.0000   1.0000
     1.0000   1.0000   1.0000   1.0000   1.0000   1.0000   1.0000   1.0000
     1.0000   1.0000   1.0000   1.0000   1.0000   1.0000   1.0000   1.0000
     1.0000   1.0000   1.0000   1.0000   1.0000   1.0000   1.0000   1.0000
     1.0000   1.0000   1.0000   1.0000   1.0000   1.0000   1.0000   1.0000
     1.0000   1.0000   1.0000   1.0000   1.0000   1.0000   1.0000   1.0000
     1.0823   1.0594   0.9263   0.7138   0.4655   0.1742   0.0978   0.0807
     0.0218   0.0001   0.0000   0.0000   0.0000   0.0000   0.0000   0.0000
     0.0000   0.0000   0.0000

     the Fermi energy is    18.7061 ev

!    total energy              =   -2674.38891030 Ry
     Harris-Foulkes estimate   =   -2674.38891030 Ry
     estimated scf accuracy    <          1.8E-11 Ry

     The total energy is the sum of the following terms:

     one-electron contribution =    -891.32078677 Ry
     hartree contribution      =     539.57251522 Ry
     xc contribution           =    -289.13275471 Ry
     ewald contribution        =   -1424.27957693 Ry
     one-center paw contrib.   =    -609.22794849 Ry
      -> PAW hartree energy AE =     212.87522606 Ry
      -> PAW hartree energy PS =    -212.00752886 Ry
      -> PAW xc energy AE      =    -111.45956495 Ry
      -> PAW xc energy PS      =      34.43680179 Ry
      -> total E_H with PAW    =     540.44021242 Ry
      -> total E_XC with PAW   =    -366.15551787 Ry
     smearing contrib. (-TS)   =      -0.00035862 Ry

     convergence has been achieved in  19 iterations

     Forces acting on atoms (cartesian axes, Ry/au):

     atom    1 type  1   force =     0.00000000    0.00000000    0.00004414
     atom    2 type  1   force =     0.00000000    0.00000000   -0.00004414
     atom    3 type  1   force =     0.00000000    0.00000000   -0.00001284
     atom    4 type  1   force =     0.00000000    0.00000000    0.00001284
     atom    5 type  1   force =     0.00000000    0.00000000    0.00000000
     atom    6 type  1   force =     0.00000000    0.00000000    0.00000000
     atom    7 type  1   force =     0.00000000    0.00000000   -0.00000000
     atom    8 type  1   force =     0.00000000    0.00000000   -0.00000000
     atom    9 type  2   force =     0.00000000    0.00000000   -0.00004884
     atom   10 type  2   force =     0.00000000    0.00000000    0.00004884
     The non-local contrib.  to forces
     atom    1 type  1   force =     0.00000000    0.00000000   -0.07999248
     atom    2 type  1   force =     0.00000000    0.00000000    0.07999248
     atom    3 type  1   force =     0.00000000    0.00000000    0.01250962
     atom    4 type  1   force =     0.00000000    0.00000000   -0.01250962
     atom    5 type  1   force =     0.00000000    0.00000000    0.00000000
     atom    6 type  1   force =     0.00000000   -0.00000000    0.00000000
     atom    7 type  1   force =    -0.00000000   -0.00000000    0.00000000
     atom    8 type  1   force =     0.00000000    0.00000000    0.00000000
     atom    9 type  2   force =     0.00000000    0.00000000    0.11018721
     atom   10 type  2   force =     0.00000000    0.00000000   -0.11018721
     The ionic contribution  to forces
     atom    1 type  1   force =     0.00000000   -0.00000000   -3.01213491
     atom    2 type  1   force =    -0.00000000   -0.00000000    3.01213491
     atom    3 type  1   force =     0.00000000    0.00000000    3.52724235
     atom    4 type  1   force =    -0.00000000    0.00000000   -3.52724235
     atom    5 type  1   force =    -0.00000000    0.00000000    0.00000000
     atom    6 type  1   force =     0.00000000    0.00000000   -0.00000000
     atom    7 type  1   force =    -0.00000000   -0.00000000   -0.00000000
     atom    8 type  1   force =     0.00000000   -0.00000000   -0.00000000
     atom    9 type  2   force =     0.00000000    0.00000000   -1.36877940
     atom   10 type  2   force =    -0.00000000    0.00000000    1.36877940
     The local contribution  to forces
     atom    1 type  1   force =     0.00000000   -0.00000000    3.09526973
     atom    2 type  1   force =    -0.00000000   -0.00000000   -3.09526973
     atom    3 type  1   force =     0.00000000    0.00000000   -3.53945497
     atom    4 type  1   force =    -0.00000000    0.00000000    3.53945497
     atom    5 type  1   force =    -0.00000000    0.00000000    0.00000000
     atom    6 type  1   force =     0.00000000    0.00000000    0.00000000
     atom    7 type  1   force =     0.00000000   -0.00000000   -0.00000000
     atom    8 type  1   force =     0.00000000   -0.00000000   -0.00000000
     atom    9 type  2   force =     0.00000000    0.00000000    1.25972379
     atom   10 type  2   force =    -0.00000000    0.00000000   -1.25972379
     The core correction contribution to forces
     atom    1 type  1   force =    -0.00000000   -0.00000000   -0.00309785
     atom    2 type  1   force =     0.00000000    0.00000000    0.00309785
     atom    3 type  1   force =    -0.00000000   -0.00000000   -0.00031088
     atom    4 type  1   force =     0.00000000   -0.00000000    0.00031088
     atom    5 type  1   force =     0.00000000   -0.00000000   -0.00000000
     atom    6 type  1   force =    -0.00000000   -0.00000000   -0.00000000
     atom    7 type  1   force =    -0.00000000   -0.00000000    0.00000000
     atom    8 type  1   force =    -0.00000000   -0.00000000    0.00000000
     atom    9 type  2   force =    -0.00000000   -0.00000000   -0.00117984
     atom   10 type  2   force =     0.00000000   -0.00000000    0.00117984
     The Hubbard contrib.    to forces
     atom    1 type  1   force =     0.00000000    0.00000000    0.00000000
     atom    2 type  1   force =     0.00000000    0.00000000    0.00000000
     atom    3 type  1   force =     0.00000000    0.00000000    0.00000000
     atom    4 type  1   force =     0.00000000    0.00000000    0.00000000
     atom    5 type  1   force =     0.00000000    0.00000000    0.00000000
     atom    6 type  1   force =     0.00000000    0.00000000    0.00000000
     atom    7 type  1   force =     0.00000000    0.00000000    0.00000000
     atom    8 type  1   force =     0.00000000    0.00000000    0.00000000
     atom    9 type  2   force =     0.00000000    0.00000000    0.00000000
     atom   10 type  2   force =     0.00000000    0.00000000    0.00000000
     The SCF correction term to forces
     atom    1 type  1   force =    -0.00000000    0.00000000   -0.00000034
     atom    2 type  1   force =     0.00000000    0.00000000    0.00000034
     atom    3 type  1   force =     0.00000000    0.00000000    0.00000103
     atom    4 type  1   force =     0.00000000    0.00000000   -0.00000103
     atom    5 type  1   force =     0.00000000   -0.00000000    0.00000000
     atom    6 type  1   force =    -0.00000000   -0.00000000    0.00000000
     atom    7 type  1   force =     0.00000000   -0.00000000    0.00000000
     atom    8 type  1   force =    -0.00000000   -0.00000000    0.00000000
     atom    9 type  2   force =    -0.00000000    0.00000000   -0.00000060
     atom   10 type  2   force =     0.00000000   -0.00000000    0.00000060

     Total force =     0.000095     Total SCF correction =     0.000002

     Computing stress (Cartesian axis) and pressure

          total   stress  (Ry/bohr**3)                   (kbar)     P=        0.51
   0.00001140   0.00000000   0.00000000            1.68        0.00        0.00
   0.00000000   0.00000007   0.00000000            0.00        0.01        0.00
   0.00000000   0.00000000  -0.00000103            0.00        0.00       -0.15

     kinetic stress (kbar)  79483.92      0.00      0.00
                                0.00  79520.51      0.00
                                0.00      0.00  79495.56

     local   stress (kbar)  62101.57     -0.00      0.00
                               -0.00  61653.97      0.00
                                0.00      0.00  63637.96

     nonloc. stress (kbar) -58396.77      0.00      0.00
                                0.00 -58384.73      0.00
                                0.00      0.00 -58356.22

     hartree stress (kbar)  39820.86      0.00     -0.00
                                0.00  40039.36      0.00
                               -0.00      0.00  39210.35

     exc-cor stress (kbar)  -2932.36     -0.00     -0.00
                               -0.00  -2931.86      0.00
                               -0.00      0.00  -2932.43

     corecor stress (kbar) -15573.47     -0.00      0.00
                               -0.00 -15575.76      0.00
                                0.00      0.00 -15574.94

     ewald   stress (kbar)-104502.07      0.00     -0.00
                                0.00-104321.48     -0.00
                               -0.00     -0.00-105480.42

     hubbard stress (kbar)      0.00      0.00      0.00
                                0.00      0.00      0.00
                                0.00      0.00      0.00

     london  stress (kbar)      0.00      0.00      0.00
                                0.00      0.00      0.00
                                0.00      0.00      0.00

     DFT-D3  stress (kbar)      0.00      0.00      0.00
                                0.00      0.00      0.00
                                0.00      0.00      0.00

     XDM     stress (kbar)      0.00      0.00      0.00
                                0.00      0.00      0.00
                                0.00      0.00      0.00

     dft-nl  stress (kbar)      0.00      0.00      0.00
                                0.00      0.00      0.00
                                0.00      0.00      0.00

     TS-vdW  stress (kbar)      0.00      0.00      0.00
                                0.00      0.00      0.00
                                0.00      0.00      0.00

     Writing output data file outputx5p20/fe4n.save/

     General routines

     Parallel routines

     PAW routines

   This run was terminated on:  21:16:32  23Nov2020

   JOB DONE.