     Program PWSCF v.6.5 starts on 23Nov2020 at 17: 7:16

     R & G space division:  proc/nbgrp/npool/nimage =      24
     Reading input from X5P2/300.in

     Current dimensions of program PWSCF are:
     Max number of different atomic species (ntypx) = 10
     Max number of k-points (npk) =  40000
     Max angular momentum in pseudopotentials (lmaxx) =  3

     IMPORTANT: XC functional enforced from input :
     Exchange-correlation= PBE
                           (   1   4   3   4   0   0   0)
     Any further DFT definition will be discarded
     Please, verify this is what you really want

               file Fe.pbe-spn-kjpaw_psl.0.2.1.UPF: wavefunction(s)  3D renormalized

     Message from routine setup:
     using ibrav=0 with symmetry is DISCOURAGED, use correct ibrav instead

     bravais-lattice index     =            0
     lattice parameter (alat)  =      12.3840  a.u.
     unit-cell volume          =     669.2381 (a.u.)^3
     number of atoms/cell      =           10
     number of atomic types    =            2
     number of electrons       =       138.00
     number of Kohn-Sham states=           83
     kinetic-energy cutoff     =     140.0000  Ry
     charge density cutoff     =     980.0000  Ry
     convergence threshold     =      2.0E-09
     mixing beta               =       0.4000
     number of iterations used =            8  plain     mixing
     Exchange-correlation= PBE
                           (   1   4   3   4   0   0   0)
     nstep                     =           50

     celldm(1)=  12.383961  celldm(2)=   0.000000  celldm(3)=   0.000000
     celldm(4)=   0.000000  celldm(5)=   0.000000  celldm(6)=   0.000000

     crystal axes: (cart. coord. in units of alat)
               a(1) = (   1.000000   0.000000   0.000000 )
               a(2) = (   0.000000   0.579278   0.000000 )
               a(3) = (   0.000000   0.000000   0.608296 )

     reciprocal axes: (cart. coord. in units 2 pi/alat)
               b(1) = (  1.000000  0.000000  0.000000 )
               b(2) = (  0.000000  1.726286  0.000000 )
               b(3) = (  0.000000  0.000000  1.643937 )

     PseudoPot. # 1 for Fe read from file:
     pseudo/Fe.pbe-spn-kjpaw_psl.0.2.1.UPF
     MD5 check sum: e86618425769142926afa95317d90200
     Pseudo is Projector augmented-wave + core cor, Zval = 16.0
     Generated using "atomic" code by A. Dal Corso v.5.0.99 svn rev. 10869
     Shape of augmentation charge: PSQ
     Using radial grid of 1191 points,  6 beta functions with:
                l(1) =   0
                l(2) =   0
                l(3) =   1
                l(4) =   1
                l(5) =   2
                l(6) =   2
     Q(r) pseudized with 0 coefficients

     PseudoPot. # 2 for N  read from file:
     pseudo/N.pbe-n-radius_5.UPF
     MD5 check sum: 16739722b17309cd8fe442a2ace49922
     Pseudo is Ultrasoft + core correction, Zval =  5.0
     Generated using "atomic" code by A. Dal Corso v.5.1
     Using radial grid of 1085 points,  4 beta functions with:
                l(1) =   0
                l(2) =   0
                l(3) =   1
                l(4) =   1
     Q(r) pseudized with 0 coefficients

     atomic species   valence    mass     pseudopotential
        Fe            16.00    55.84500     Fe( 1.00)
        N              5.00    14.00650     N ( 1.00)

      8 Sym. Ops., with inversion, found ( 4 have fractional translation)

                                    s                        frac. trans.

      isym =  1     identity

 cryst.   s( 1) = (     1          0          0      )
                  (     0          1          0      )
                  (     0          0          1      )

 cart.    s( 1) = (  1.0000000  0.0000000  0.0000000 )
                  (  0.0000000  1.0000000  0.0000000 )
                  (  0.0000000  0.0000000  1.0000000 )

      isym =  2     180 deg rotation - cart. axis [0,0,1]

 cryst.   s( 2) = (    -1          0          0      )    f =(  0.5000000 )
                  (     0         -1          0      )       (  0.0000000 )
                  (     0          0          1      )       (  0.0000000 )

 cart.    s( 2) = ( -1.0000000  0.0000000  0.0000000 )    f =(  0.5000000 )
                  (  0.0000000 -1.0000000  0.0000000 )       (  0.0000000 )
                  (  0.0000000  0.0000000  1.0000000 )       (  0.0000000 )

[...]

      isym =  5     inversion

[...]

      isym =  6     inv. 180 deg rotation - cart. axis [0,0,1]

[...]

   Cartesian axes

     site n.     atom                  positions (alat units)
         1           Fe  tau(   1) = (   0.2500000   0.0000000   0.2456055  )
         2           Fe  tau(   2) = (   0.7500000   0.0000000   0.3626902  )
         3           Fe  tau(   3) = (   0.2500000   0.2896391   0.5497533  )
         4           Fe  tau(   4) = (   0.7500000   0.2896391   0.0585424  )
         5           Fe  tau(   5) = (   0.0000000   0.2896391   0.3041478  )
         6           Fe  tau(   6) = (   0.5000000   0.2896391   0.3041478  )
         7           Fe  tau(   7) = (   0.0000000   0.0000000   0.0000000  )
         8           Fe  tau(   8) = (   0.5000000   0.0000000   0.0000000  )
         9           N   tau(   9) = (   0.2500000   0.2896391   0.2456055  )
        10           N   tau(  10) = (   0.7500000   0.2896391   0.3626902  )

   Crystallographic axes

     site n.     atom                  positions (cryst. coord.)
         1           Fe  tau(   1) = (  0.2500000  0.0000000  0.4037600  )
         2           Fe  tau(   2) = (  0.7500000  0.0000000  0.5962400  )
         3           Fe  tau(   3) = (  0.2500000  0.5000000  0.9037600  )
         4           Fe  tau(   4) = (  0.7500000  0.5000000  0.0962400  )
         5           Fe  tau(   5) = (  0.0000000  0.5000000  0.5000000  )
         6           Fe  tau(   6) = (  0.5000000  0.5000000  0.5000000  )
         7           Fe  tau(   7) = (  0.0000000  0.0000000  0.0000000  )
         8           Fe  tau(   8) = (  0.5000000  0.0000000  0.0000000  )
         9           N   tau(   9) = (  0.2500000  0.5000000  0.4037600  )
        10           N   tau(  10) = (  0.7500000  0.5000000  0.5962400  )

     number of k points=    75  Marzari-Vanderbilt smearing, width (Ry)=  0.0147
                       cart. coord. in units 2pi/alat
        k(    1) = (   0.0000000   0.0000000   0.0000000), wk =   0.0055556
        k(    2) = (   0.0000000   0.0000000   0.2054922), wk =   0.0111111
        k(    3) = (   0.0000000   0.0000000   0.4109844), wk =   0.0111111
        k(    4) = (   0.0000000   0.0000000   0.6164765), wk =   0.0111111
        k(    5) = (   0.0000000   0.0000000  -0.8219687), wk =   0.0055556
        k(    6) = (   0.0000000   0.1918096   0.0000000), wk =   0.0111111
        k(    7) = (   0.0000000   0.1918096   0.2054922), wk =   0.0222222
        k(    8) = (   0.0000000   0.1918096   0.4109844), wk =   0.0222222
        k(    9) = (   0.0000000   0.1918096   0.6164765), wk =   0.0222222
        k(   10) = (   0.0000000   0.1918096  -0.8219687), wk =   0.0111111
        k(   11) = (   0.0000000   0.3836191   0.0000000), wk =   0.0111111
        k(   12) = (   0.0000000   0.3836191   0.2054922), wk =   0.0222222
        k(   13) = (   0.0000000   0.3836191   0.4109844), wk =   0.0222222
        k(   14) = (   0.0000000   0.3836191   0.6164765), wk =   0.0222222
        k(   15) = (   0.0000000   0.3836191  -0.8219687), wk =   0.0111111
        k(   16) = (   0.0000000   0.5754287   0.0000000), wk =   0.0111111
        k(   17) = (   0.0000000   0.5754287   0.2054922), wk =   0.0222222
        k(   18) = (   0.0000000   0.5754287   0.4109844), wk =   0.0222222
        k(   19) = (   0.0000000   0.5754287   0.6164765), wk =   0.0222222
        k(   20) = (   0.0000000   0.5754287  -0.8219687), wk =   0.0111111
        k(   21) = (   0.0000000   0.7672383   0.0000000), wk =   0.0111111
        k(   22) = (   0.0000000   0.7672383   0.2054922), wk =   0.0222222
        k(   23) = (   0.0000000   0.7672383   0.4109844), wk =   0.0222222
        k(   24) = (   0.0000000   0.7672383   0.6164765), wk =   0.0222222
        k(   25) = (   0.0000000   0.7672383  -0.8219687), wk =   0.0111111
        k(   26) = (   0.2000000   0.0000000   0.0000000), wk =   0.0111111
        k(   27) = (   0.2000000   0.0000000   0.2054922), wk =   0.0222222
        k(   28) = (   0.2000000   0.0000000   0.4109844), wk =   0.0222222
        k(   29) = (   0.2000000   0.0000000   0.6164765), wk =   0.0222222
        k(   30) = (   0.2000000   0.0000000  -0.8219687), wk =   0.0111111
        k(   31) = (   0.2000000   0.1918096   0.0000000), wk =   0.0222222
        k(   32) = (   0.2000000   0.1918096   0.2054922), wk =   0.0444444
        k(   33) = (   0.2000000   0.1918096   0.4109844), wk =   0.0444444
        k(   34) = (   0.2000000   0.1918096   0.6164765), wk =   0.0444444
        k(   35) = (   0.2000000   0.1918096  -0.8219687), wk =   0.0222222
        k(   36) = (   0.2000000   0.3836191   0.0000000), wk =   0.0222222
        k(   37) = (   0.2000000   0.3836191   0.2054922), wk =   0.0444444
        k(   38) = (   0.2000000   0.3836191   0.4109844), wk =   0.0444444
        k(   39) = (   0.2000000   0.3836191   0.6164765), wk =   0.0444444
        k(   40) = (   0.2000000   0.3836191  -0.8219687), wk =   0.0222222
        k(   41) = (   0.2000000   0.5754287   0.0000000), wk =   0.0222222
        k(   42) = (   0.2000000   0.5754287   0.2054922), wk =   0.0444444
        k(   43) = (   0.2000000   0.5754287   0.4109844), wk =   0.0444444
        k(   44) = (   0.2000000   0.5754287   0.6164765), wk =   0.0444444
        k(   45) = (   0.2000000   0.5754287  -0.8219687), wk =   0.0222222
        k(   46) = (   0.2000000   0.7672383   0.0000000), wk =   0.0222222
        k(   47) = (   0.2000000   0.7672383   0.2054922), wk =   0.0444444
        k(   48) = (   0.2000000   0.7672383   0.4109844), wk =   0.0444444
        k(   49) = (   0.2000000   0.7672383   0.6164765), wk =   0.0444444
        k(   50) = (   0.2000000   0.7672383  -0.8219687), wk =   0.0222222
        k(   51) = (   0.4000000   0.0000000   0.0000000), wk =   0.0111111
        k(   52) = (   0.4000000   0.0000000   0.2054922), wk =   0.0222222
        k(   53) = (   0.4000000   0.0000000   0.4109844), wk =   0.0222222
        k(   54) = (   0.4000000   0.0000000   0.6164765), wk =   0.0222222
        k(   55) = (   0.4000000   0.0000000  -0.8219687), wk =   0.0111111
        k(   56) = (   0.4000000   0.1918096   0.0000000), wk =   0.0222222
        k(   57) = (   0.4000000   0.1918096   0.2054922), wk =   0.0444444
        k(   58) = (   0.4000000   0.1918096   0.4109844), wk =   0.0444444
        k(   59) = (   0.4000000   0.1918096   0.6164765), wk =   0.0444444
        k(   60) = (   0.4000000   0.1918096  -0.8219687), wk =   0.0222222
        k(   61) = (   0.4000000   0.3836191   0.0000000), wk =   0.0222222
        k(   62) = (   0.4000000   0.3836191   0.2054922), wk =   0.0444444
        k(   63) = (   0.4000000   0.3836191   0.4109844), wk =   0.0444444
        k(   64) = (   0.4000000   0.3836191   0.6164765), wk =   0.0444444
[...]
        k(   18) = (   0.0000000   0.3333333   0.2500000), wk =   0.0222222
        k(   19) = (   0.0000000   0.3333333   0.3750000), wk =   0.0222222
        k(   20) = (   0.0000000   0.3333333  -0.5000000), wk =   0.0111111
        k(   21) = (   0.0000000   0.4444444   0.0000000), wk =   0.0111111
        k(   22) = (   0.0000000   0.4444444   0.1250000), wk =   0.0222222
        k(   23) = (   0.0000000   0.4444444   0.2500000), wk =   0.0222222
        k(   24) = (   0.0000000   0.4444444   0.3750000), wk =   0.0222222
        k(   25) = (   0.0000000   0.4444444  -0.5000000), wk =   0.0111111
        k(   26) = (   0.2000000   0.0000000   0.0000000), wk =   0.0111111
        k(   27) = (   0.2000000   0.0000000   0.1250000), wk =   0.0222222
        k(   28) = (   0.2000000   0.0000000   0.2500000), wk =   0.0222222
        k(   29) = (   0.2000000   0.0000000   0.3750000), wk =   0.0222222
        k(   30) = (   0.2000000   0.0000000  -0.5000000), wk =   0.0111111
        k(   31) = (   0.2000000   0.1111111   0.0000000), wk =   0.0222222
        k(   32) = (   0.2000000   0.1111111   0.1250000), wk =   0.0444444
        k(   33) = (   0.2000000   0.1111111   0.2500000), wk =   0.0444444
        k(   34) = (   0.2000000   0.1111111   0.3750000), wk =   0.0444444
        k(   35) = (   0.2000000   0.1111111  -0.5000000), wk =   0.0222222
        k(   36) = (   0.2000000   0.2222222   0.0000000), wk =   0.0222222
        k(   37) = (   0.2000000   0.2222222   0.1250000), wk =   0.0444444
        k(   38) = (   0.2000000   0.2222222   0.2500000), wk =   0.0444444
        k(   39) = (   0.2000000   0.2222222   0.3750000), wk =   0.0444444
        k(   40) = (   0.2000000   0.2222222  -0.5000000), wk =   0.0222222
        k(   41) = (   0.2000000   0.3333333   0.0000000), wk =   0.0222222
        k(   42) = (   0.2000000   0.3333333   0.1250000), wk =   0.0444444
        k(   43) = (   0.2000000   0.3333333   0.2500000), wk =   0.0444444
        k(   44) = (   0.2000000   0.3333333   0.3750000), wk =   0.0444444
        k(   45) = (   0.2000000   0.3333333  -0.5000000), wk =   0.0222222
        k(   46) = (   0.2000000   0.4444444   0.0000000), wk =   0.0222222
        k(   47) = (   0.2000000   0.4444444   0.1250000), wk =   0.0444444
        k(   48) = (   0.2000000   0.4444444   0.2500000), wk =   0.0444444
        k(   49) = (   0.2000000   0.4444444   0.3750000), wk =   0.0444444
        k(   50) = (   0.2000000   0.4444444  -0.5000000), wk =   0.0222222
        k(   51) = (   0.4000000   0.0000000   0.0000000), wk =   0.0111111
        k(   52) = (   0.4000000   0.0000000   0.1250000), wk =   0.0222222
        k(   53) = (   0.4000000   0.0000000   0.2500000), wk =   0.0222222
        k(   54) = (   0.4000000   0.0000000   0.3750000), wk =   0.0222222
        k(   55) = (   0.4000000   0.0000000  -0.5000000), wk =   0.0111111
        k(   56) = (   0.4000000   0.1111111   0.0000000), wk =   0.0222222
        k(   57) = (   0.4000000   0.1111111   0.1250000), wk =   0.0444444
        k(   58) = (   0.4000000   0.1111111   0.2500000), wk =   0.0444444
        k(   59) = (   0.4000000   0.1111111   0.3750000), wk =   0.0444444
        k(   60) = (   0.4000000   0.1111111  -0.5000000), wk =   0.0222222
        k(   61) = (   0.4000000   0.2222222   0.0000000), wk =   0.0222222
        k(   62) = (   0.4000000   0.2222222   0.1250000), wk =   0.0444444
        k(   63) = (   0.4000000   0.2222222   0.2500000), wk =   0.0444444
        k(   64) = (   0.4000000   0.2222222   0.3750000), wk =   0.0444444
        k(   65) = (   0.4000000   0.2222222  -0.5000000), wk =   0.0222222
        k(   66) = (   0.4000000   0.3333333   0.0000000), wk =   0.0222222
        k(   67) = (   0.4000000   0.3333333   0.1250000), wk =   0.0444444
        k(   68) = (   0.4000000   0.3333333   0.2500000), wk =   0.0444444
        k(   69) = (   0.4000000   0.3333333   0.3750000), wk =   0.0444444
        k(   70) = (   0.4000000   0.3333333  -0.5000000), wk =   0.0222222
        k(   71) = (   0.4000000   0.4444444   0.0000000), wk =   0.0222222
        k(   72) = (   0.4000000   0.4444444   0.1250000), wk =   0.0444444
        k(   73) = (   0.4000000   0.4444444   0.2500000), wk =   0.0444444
        k(   74) = (   0.4000000   0.4444444   0.3750000), wk =   0.0444444
        k(   75) = (   0.4000000   0.4444444  -0.5000000), wk =   0.0222222

     Check: negative core charge=   -0.000010

     Initial potential from superposition of free atoms

     starting charge  137.99648, renormalised to  138.00000
     Starting wfcs are  112 randomized atomic wfcs
     Checking if some PAW data can be deallocated...

     Self-consistent Calculation

     iteration #  1     ecut=   140.00 Ry     beta= 0.40
     Davidson diagonalization with overlap
     c_bands:  1 eigenvalues not converged
     c_bands:  1 eigenvalues not converged
     c_bands:  1 eigenvalues not converged
     c_bands:  1 eigenvalues not converged
     c_bands:  1 eigenvalues not converged
     c_bands:  1 eigenvalues not converged
     c_bands:  1 eigenvalues not converged
     c_bands:  1 eigenvalues not converged
     ethr =  1.00E-06,  avg # of iterations = 14.6

[...]

     total energy              =   -2674.33553883 Ry
     Harris-Foulkes estimate   =   -2674.33553883 Ry
     estimated scf accuracy    <          8.2E-11 Ry

     iteration # 18     ecut=   140.00 Ry     beta= 0.40
     Davidson diagonalization with overlap
     ethr =  1.00E-13,  avg # of iterations =  4.0

     End of self-consistent calculation

[...]

          k = 0.3699 0.8245-0.9070 ( 17068 PWs)   bands (ev):

   -66.6790 -66.6779 -66.6565 -66.6560 -66.6216 -66.6209 -65.9541 -65.9540
   -33.4908 -33.4419 -33.1389 -33.0897 -32.9985 -32.9979 -32.7214 -32.7182
   -32.7139 -32.6978 -32.6866 -32.6781 -32.4978 -32.4919 -32.4691 -32.4602
   -32.3985 -32.3984 -32.0340 -32.0324 -32.0115 -32.0060 -32.0056 -31.9991
     3.4465   3.7221  11.2477  11.2854  11.4717  11.5319  11.9513  12.6683
    16.1208  16.2769  17.1173  17.1228  17.3650  17.3844  17.6247  17.8219
    18.2933  18.3173  18.4948  18.5750  18.5752  18.6465  18.6607  18.8274
    18.8378  18.9573  19.0292  19.0339  19.1612  19.2605  19.4241  19.6860
    20.4772  20.5442  20.6462  20.7195  20.8090  20.9251  20.9996  21.0030
    21.0628  21.3179  21.6222  21.6267  21.8520  21.8837  22.5662  22.8874
    23.1447  23.7029  24.9853

     occupation numbers
     1.0000   1.0000   1.0000   1.0000   1.0000   1.0000   1.0000   1.0000
     1.0000   1.0000   1.0000   1.0000   1.0000   1.0000   1.0000   1.0000
     1.0000   1.0000   1.0000   1.0000   1.0000   1.0000   1.0000   1.0000
     1.0000   1.0000   1.0000   1.0000   1.0000   1.0000   1.0000   1.0000
     1.0000   1.0000   1.0000   1.0000   1.0000   1.0000   1.0000   1.0000
     1.0000   1.0000   1.0000   1.0000   1.0000   1.0000   1.0000   1.0000
     1.0000   1.0000   1.0000   1.0000   1.0000   1.0000   1.0000   1.0000
     1.0000   1.0000   1.0000   1.0000   1.0000   1.0000   1.0000   1.0000
     1.0670   1.0831   0.9814   0.7725   0.4426   0.1298   0.0427   0.0403
     0.0135   0.0000   0.0000   0.0000   0.0000   0.0000   0.0000   0.0000
     0.0000   0.0000   0.0000

     the Fermi energy is    20.8211 ev

!    total energy              =   -2674.33553883 Ry
     Harris-Foulkes estimate   =   -2674.33553883 Ry
     estimated scf accuracy    <          2.0E-11 Ry

     The total energy is the sum of the following terms:

     one-electron contribution =    -824.54943656 Ry
     hartree contribution      =     516.24501094 Ry
     xc contribution           =    -289.92145700 Ry
     ewald contribution        =   -1466.85994939 Ry
     one-center paw contrib.   =    -609.25050369 Ry
      -> PAW hartree energy AE =     216.88891950 Ry
      -> PAW hartree energy PS =    -216.01955402 Ry
      -> PAW xc energy AE      =    -111.69760033 Ry
      -> PAW xc energy PS      =      34.67008564 Ry
      -> total E_H with PAW    =     517.11437642 Ry
      -> total E_XC with PAW   =    -366.94897169 Ry
     smearing contrib. (-TS)   =       0.00079687 Ry

     convergence has been achieved in  18 iterations

     Forces acting on atoms (cartesian axes, Ry/au):

     atom    1 type  1   force =     0.00000000    0.00000000    0.00000840
     atom    2 type  1   force =     0.00000000    0.00000000   -0.00000840
     atom    3 type  1   force =     0.00000000    0.00000000   -0.00000346
     atom    4 type  1   force =     0.00000000    0.00000000    0.00000346
     atom    5 type  1   force =     0.00000000    0.00000000    0.00000000
     atom    6 type  1   force =     0.00000000    0.00000000    0.00000000
     atom    7 type  1   force =     0.00000000    0.00000000   -0.00000000
     atom    8 type  1   force =     0.00000000    0.00000000   -0.00000000
     atom    9 type  2   force =     0.00000000    0.00000000    0.00000767
     atom   10 type  2   force =     0.00000000    0.00000000   -0.00000767
     The non-local contrib.  to forces
     atom    1 type  1   force =     0.00000000    0.00000000   -0.08105055
     atom    2 type  1   force =     0.00000000    0.00000000    0.08105055
     atom    3 type  1   force =     0.00000000    0.00000000    0.02412425
     atom    4 type  1   force =     0.00000000    0.00000000   -0.02412425
     atom    5 type  1   force =    -0.00000000   -0.00000000    0.00000000
     atom    6 type  1   force =     0.00000000    0.00000000    0.00000000
     atom    7 type  1   force =     0.00000000    0.00000000    0.00000000
     atom    8 type  1   force =     0.00000000    0.00000000   -0.00000000
     atom    9 type  2   force =     0.00000000    0.00000000    0.11852408
     atom   10 type  2   force =     0.00000000    0.00000000   -0.11852408
     The ionic contribution  to forces
     atom    1 type  1   force =    -0.00000000   -0.00000000   -3.09718131
     atom    2 type  1   force =    -0.00000000   -0.00000000    3.09718131
     atom    3 type  1   force =    -0.00000000    0.00000000    4.18632190
     atom    4 type  1   force =    -0.00000000    0.00000000   -4.18632190
     atom    5 type  1   force =     0.00000000    0.00000000    0.00000000
     atom    6 type  1   force =     0.00000000    0.00000000    0.00000000
     atom    7 type  1   force =     0.00000000   -0.00000000   -0.00000000
     atom    8 type  1   force =     0.00000000   -0.00000000   -0.00000000
     atom    9 type  2   force =    -0.00000000    0.00000000   -1.65094410
     atom   10 type  2   force =    -0.00000000    0.00000000    1.65094410
     The local contribution  to forces
     atom    1 type  1   force =    -0.00000000   -0.00000000    3.18110494
     atom    2 type  1   force =    -0.00000000   -0.00000000   -3.18110494
     atom    3 type  1   force =    -0.00000000    0.00000000   -4.21015415
     atom    4 type  1   force =    -0.00000000    0.00000000    4.21015415
     atom    5 type  1   force =    -0.00000000    0.00000000    0.00000000
     atom    6 type  1   force =     0.00000000    0.00000000    0.00000000
     atom    7 type  1   force =     0.00000000   -0.00000000   -0.00000000
     atom    8 type  1   force =     0.00000000   -0.00000000   -0.00000000
     atom    9 type  2   force =    -0.00000000    0.00000000    1.53368658
     atom   10 type  2   force =    -0.00000000    0.00000000   -1.53368658
     The core correction contribution to forces
     atom    1 type  1   force =     0.00000000   -0.00000000   -0.00286398
     atom    2 type  1   force =     0.00000000    0.00000000    0.00286398
     atom    3 type  1   force =     0.00000000   -0.00000000   -0.00029385
     atom    4 type  1   force =     0.00000000   -0.00000000    0.00029385
     atom    5 type  1   force =    -0.00000000   -0.00000000   -0.00000000
     atom    6 type  1   force =    -0.00000000   -0.00000000   -0.00000000
     atom    7 type  1   force =    -0.00000000   -0.00000000   -0.00000000
     atom    8 type  1   force =    -0.00000000   -0.00000000    0.00000000
     atom    9 type  2   force =     0.00000000   -0.00000000   -0.00125994
     atom   10 type  2   force =     0.00000000   -0.00000000    0.00125994
     The Hubbard contrib.    to forces
     atom    1 type  1   force =     0.00000000    0.00000000    0.00000000
     atom    2 type  1   force =     0.00000000    0.00000000    0.00000000
     atom    3 type  1   force =     0.00000000    0.00000000    0.00000000
     atom    4 type  1   force =     0.00000000    0.00000000    0.00000000
     atom    5 type  1   force =     0.00000000    0.00000000    0.00000000
     atom    6 type  1   force =     0.00000000    0.00000000    0.00000000
     atom    7 type  1   force =     0.00000000    0.00000000    0.00000000
     atom    8 type  1   force =     0.00000000    0.00000000    0.00000000
     atom    9 type  2   force =     0.00000000    0.00000000    0.00000000
     atom   10 type  2   force =     0.00000000    0.00000000    0.00000000
     The SCF correction term to forces
     atom    1 type  1   force =     0.00000000   -0.00000000   -0.00000071
     atom    2 type  1   force =    -0.00000000   -0.00000000    0.00000071
     atom    3 type  1   force =    -0.00000000    0.00000000   -0.00000160
     atom    4 type  1   force =     0.00000000    0.00000000    0.00000160
     atom    5 type  1   force =     0.00000000   -0.00000000    0.00000000
     atom    6 type  1   force =     0.00000000    0.00000000    0.00000000
     atom    7 type  1   force =    -0.00000000   -0.00000000   -0.00000000
     atom    8 type  1   force =     0.00000000   -0.00000000   -0.00000000
     atom    9 type  2   force =     0.00000000   -0.00000000    0.00000106
     atom   10 type  2   force =    -0.00000000   -0.00000000   -0.00000106

     Total force =     0.000017     Total SCF correction =     0.000003
     SCF correction compared to forces is large: reduce conv_thr to get better values

     Computing stress (Cartesian axis) and pressure

          total   stress  (Ry/bohr**3)                   (kbar)     P=      300.29
   0.00204696   0.00000000   0.00000000          301.12        0.00        0.00
   0.00000000   0.00203843   0.00000000            0.00      299.86        0.00
   0.00000000   0.00000000   0.00203858            0.00        0.00      299.89

     kinetic stress (kbar)  88383.18      0.00      0.00
                                0.00  88431.72      0.00
                                0.00      0.00  88400.88

     local   stress (kbar)  73285.46     -0.00     -0.00
                               -0.00  72556.13     -0.00
                               -0.00     -0.00  74920.08

     nonloc. stress (kbar) -65044.21      0.00      0.00
                                0.00 -65039.88      0.00
                                0.00      0.00 -65004.45

     hartree stress (kbar)  41600.94     -0.00      0.00
                               -0.00  41918.11      0.00
                                0.00      0.00  40932.96

     exc-cor stress (kbar)  -3259.68      0.00     -0.00
                                0.00  -3258.80     -0.00
                               -0.00     -0.00  -3259.44

     corecor stress (kbar) -17013.18     -0.00      0.00
                               -0.00 -17015.93     -0.00
                                0.00     -0.00 -17014.76

     ewald   stress (kbar)-117651.41     -0.00     -0.00
                               -0.00-117291.49      0.00
                               -0.00      0.00-118675.39

     hubbard stress (kbar)      0.00      0.00      0.00
                                0.00      0.00      0.00
                                0.00      0.00      0.00

     london  stress (kbar)      0.00      0.00      0.00
                                0.00      0.00      0.00
                                0.00      0.00      0.00

     DFT-D3  stress (kbar)      0.00      0.00      0.00
                                0.00      0.00      0.00
                                0.00      0.00      0.00

     XDM     stress (kbar)      0.00      0.00      0.00
                                0.00      0.00      0.00
                                0.00      0.00      0.00

     dft-nl  stress (kbar)      0.00      0.00      0.00
                                0.00      0.00      0.00
                                0.00      0.00      0.00

     TS-vdW  stress (kbar)      0.00      0.00      0.00
                                0.00      0.00      0.00
                                0.00      0.00      0.00

     Writing output data file output/fe4n.save/

     General routines

     Parallel routines

     PAW routines

   This run was terminated on:  19: 9:28  23Nov2020

   JOB DONE.