     Program PWSCF v.5.2.0 starts on  9Nov2020 at 14:51:45

     Current dimensions of program PWSCF are:
     Max number of different atomic species (ntypx) = 10
     Max number of k-points (npk) =  40000
     Max angular momentum in pseudopotentials (lmaxx) =  3

     IMPORTANT: XC functional enforced from input :
     Exchange-correlation      = PBE ( 1  4  3  4 0 0)
     Any further DFT definition will be discarded
     Please, verify this is what you really want

               file Fe.pbe-spn-kjpaw_psl.0.2.1.UPF: wavefunction(s)  3D renormalized

     bravais-lattice index     =            0
     lattice parameter (alat)  =      12.3840  a.u.
     unit-cell volume          =     669.2381 (a.u.)^3
     number of atoms/cell      =           10
     number of atomic types    =            2
     number of electrons       =       138.00
     number of Kohn-Sham states=           83
     kinetic-energy cutoff     =     105.0000  Ry
     charge density cutoff     =     735.0000  Ry
     convergence threshold     =      2.0E-09
     mixing beta               =       0.4000
     number of iterations used =            8  plain     mixing
     Exchange-correlation      = PBE ( 1  4  3  4 0 0)
     nstep                     =           50

     celldm(1)=  12.383961  celldm(2)=   0.000000  celldm(3)=   0.000000
     celldm(4)=   0.000000  celldm(5)=   0.000000  celldm(6)=   0.000000

     crystal axes: (cart. coord. in units of alat)
               a(1) = (   1.000000   0.000000   0.000000 )
               a(2) = (   0.000000   0.579278   0.000000 )
               a(3) = (   0.000000   0.000000   0.608296 )

     reciprocal axes: (cart. coord. in units 2 pi/alat)
               b(1) = (  1.000000  0.000000  0.000000 )
               b(2) = (  0.000000  1.726286  0.000000 )
               b(3) = (  0.000000  0.000000  1.643937 )

     PseudoPot. # 1 for Fe read from file:
     pseudo/Fe.pbe-spn-kjpaw_psl.0.2.1.UPF
     MD5 check sum: e86618425769142926afa95317d90200
     Pseudo is Projector augmented-wave + core cor, Zval = 16.0
     Generated using "atomic" code by A. Dal Corso  v.5.0.99 svn rev. 10869
     Shape of augmentation charge: PSQ
     Using radial grid of 1191 points,  6 beta functions with:
                l(1) =   0
                l(2) =   0
                l(3) =   1
                l(4) =   1
                l(5) =   2
                l(6) =   2
     Q(r) pseudized with 0 coefficients

     PseudoPot. # 2 for  N read from file:
     pseudo/N.pbe-n-radius_5.UPF
     MD5 check sum: 16739722b17309cd8fe442a2ace49922
     Pseudo is Ultrasoft + core correction, Zval =  5.0
     Generated using "atomic" code by A. Dal Corso  v.5.1
     Using radial grid of 1085 points,  4 beta functions with:
                l(1) =   0
                l(2) =   0
                l(3) =   1
                l(4) =   1
     Q(r) pseudized with 0 coefficients

     atomic species   valence    mass     pseudopotential
        Fe            16.00    55.84500     Fe( 1.00)
        N              5.00    14.00650      N( 1.00)

      8 Sym. Ops., with inversion, found ( 4 have fractional translation)

                                    s                        frac. trans.

      isym =  1     identity

 cryst.   s( 1) = (     1          0          0      )
                  (     0          1          0      )
                  (     0          0          1      )

 cart.    s( 1) = (  1.0000000  0.0000000  0.0000000 )
                  (  0.0000000  1.0000000  0.0000000 )
                  (  0.0000000  0.0000000  1.0000000 )

      isym =  2     180 deg rotation - cart. axis [0,0,1]

 cryst.   s( 2) = (    -1          0          0      )    f =(  0.5000000 )
                  (     0         -1          0      )       (  0.0000000 )
                  (     0          0          1      )       (  0.0000000 )

 cart.    s( 2) = ( -1.0000000  0.0000000  0.0000000 )    f =(  0.5000000 )
                  (  0.0000000 -1.0000000  0.0000000 )       (  0.0000000 )
                  (  0.0000000  0.0000000  1.0000000 )       (  0.0000000 )

[...]

      isym =  5     inversion

[...]

      isym =  6     inv. 180 deg rotation - cart. axis [0,0,1]

[...]

     point group D_2h (mmm)
     there are  8 classes
     the character table:

       E     C2    C2'   C2''  i     s_v   s_v'  s_v''
A_g    1.00  1.00  1.00  1.00  1.00  1.00  1.00  1.00
B_1g   1.00  1.00 -1.00 -1.00  1.00  1.00 -1.00 -1.00
B_2g   1.00 -1.00  1.00 -1.00  1.00 -1.00  1.00 -1.00
B_3g   1.00 -1.00 -1.00  1.00  1.00 -1.00 -1.00  1.00
A_u    1.00  1.00  1.00  1.00 -1.00 -1.00 -1.00 -1.00
B_1u   1.00  1.00 -1.00 -1.00 -1.00 -1.00  1.00  1.00
B_2u   1.00 -1.00  1.00 -1.00 -1.00  1.00 -1.00  1.00
B_3u   1.00 -1.00 -1.00  1.00 -1.00  1.00  1.00 -1.00

     the symmetry operations in each class and the name of the first element:

     E        1
          identity
     C2       2
          180 deg rotation - cart. axis [0,0,1]
     C2'      3
          180 deg rotation - cart. axis [0,1,0]
     C2''     4
          180 deg rotation - cart. axis [1,0,0]
     i        5
          inversion
     s_v      6
          inv. 180 deg rotation - cart. axis [0,0,1]
     s_v'     7
          inv. 180 deg rotation - cart. axis [0,1,0]
     s_v''    8
          inv. 180 deg rotation - cart. axis [1,0,0]

   Cartesian axes

     site n.     atom                  positions (alat units)
         1           Fe  tau(   1) = (   0.2500000   0.0000000   0.2456055  )
         2           Fe  tau(   2) = (   0.7500000   0.0000000   0.3626902  )
         3           Fe  tau(   3) = (   0.2500000   0.2896391   0.5497533  )
         4           Fe  tau(   4) = (   0.7500000   0.2896391   0.0585424  )
         5           Fe  tau(   5) = (   0.0000000   0.2896391   0.3041478  )
         6           Fe  tau(   6) = (   0.5000000   0.2896391   0.3041478  )
         7           Fe  tau(   7) = (   0.0000000   0.0000000   0.0000000  )
         8           Fe  tau(   8) = (   0.5000000   0.0000000   0.0000000  )
         9           N   tau(   9) = (   0.2500000   0.2896391   0.2456055  )
        10           N   tau(  10) = (   0.7500000   0.2896391   0.3626902  )

   Crystallographic axes

     site n.     atom                  positions (cryst. coord.)
         1           Fe  tau(   1) = (  0.2500000  0.0000000  0.4037600  )
         2           Fe  tau(   2) = (  0.7500000  0.0000000  0.5962400  )
         3           Fe  tau(   3) = (  0.2500000  0.5000000  0.9037600  )
         4           Fe  tau(   4) = (  0.7500000  0.5000000  0.0962400  )
         5           Fe  tau(   5) = (  0.0000000  0.5000000  0.5000000  )
         6           Fe  tau(   6) = (  0.5000000  0.5000000  0.5000000  )
         7           Fe  tau(   7) = (  0.0000000  0.0000000  0.0000000  )
         8           Fe  tau(   8) = (  0.5000000  0.0000000  0.0000000  )
         9           N   tau(   9) = (  0.2500000  0.5000000  0.4037600  )
        10           N   tau(  10) = (  0.7500000  0.5000000  0.5962400  )

     number of k points=    75  Marzari-Vanderbilt smearing, width (Ry)=  0.0147
                       cart. coord. in units 2pi/alat
        k(    1) = (   0.0000000   0.0000000   0.0000000), wk =   0.0062500
        k(    2) = (   0.0000000   0.0000000   0.2054922), wk =   0.0125000
        k(    3) = (   0.0000000   0.0000000   0.4109844), wk =   0.0125000
        k(    4) = (   0.0000000   0.0000000   0.6164765), wk =   0.0125000
        k(    5) = (   0.0000000   0.0000000  -0.8219687), wk =   0.0062500
        k(    6) = (   0.0000000   0.2157858   0.0000000), wk =   0.0125000
        k(    7) = (   0.0000000   0.2157858   0.2054922), wk =   0.0250000
        k(    8) = (   0.0000000   0.2157858   0.4109844), wk =   0.0250000
        k(    9) = (   0.0000000   0.2157858   0.6164765), wk =   0.0250000
        k(   10) = (   0.0000000   0.2157858  -0.8219687), wk =   0.0125000
        k(   11) = (   0.0000000   0.4315715   0.0000000), wk =   0.0125000
        k(   12) = (   0.0000000   0.4315715   0.2054922), wk =   0.0250000
        k(   13) = (   0.0000000   0.4315715   0.4109844), wk =   0.0250000
        k(   14) = (   0.0000000   0.4315715   0.6164765), wk =   0.0250000
        k(   15) = (   0.0000000   0.4315715  -0.8219687), wk =   0.0125000
        k(   16) = (   0.0000000   0.6473573   0.0000000), wk =   0.0125000
        k(   17) = (   0.0000000   0.6473573   0.2054922), wk =   0.0250000
        k(   18) = (   0.0000000   0.6473573   0.4109844), wk =   0.0250000
        k(   19) = (   0.0000000   0.6473573   0.6164765), wk =   0.0250000
        k(   20) = (   0.0000000   0.6473573  -0.8219687), wk =   0.0125000
        k(   21) = (   0.0000000  -0.8631430   0.0000000), wk =   0.0062500
        k(   22) = (   0.0000000  -0.8631430   0.2054922), wk =   0.0125000
        k(   23) = (   0.0000000  -0.8631430   0.4109844), wk =   0.0125000
        k(   24) = (   0.0000000  -0.8631430   0.6164765), wk =   0.0125000
        k(   25) = (   0.0000000  -0.8631430  -0.8219687), wk =   0.0062500
        k(   26) = (   0.2000000   0.0000000   0.0000000), wk =   0.0125000
        k(   27) = (   0.2000000   0.0000000   0.2054922), wk =   0.0250000
        k(   28) = (   0.2000000   0.0000000   0.4109844), wk =   0.0250000
        k(   29) = (   0.2000000   0.0000000   0.6164765), wk =   0.0250000
        k(   30) = (   0.2000000   0.0000000  -0.8219687), wk =   0.0125000
        k(   31) = (   0.2000000   0.2157858   0.0000000), wk =   0.0250000
        k(   32) = (   0.2000000   0.2157858   0.2054922), wk =   0.0500000
        k(   33) = (   0.2000000   0.2157858   0.4109844), wk =   0.0500000
        k(   34) = (   0.2000000   0.2157858   0.6164765), wk =   0.0500000
        k(   35) = (   0.2000000   0.2157858  -0.8219687), wk =   0.0250000
        k(   36) = (   0.2000000   0.4315715   0.0000000), wk =   0.0250000
        k(   37) = (   0.2000000   0.4315715   0.2054922), wk =   0.0500000
        k(   38) = (   0.2000000   0.4315715   0.4109844), wk =   0.0500000
        k(   39) = (   0.2000000   0.4315715   0.6164765), wk =   0.0500000
        k(   40) = (   0.2000000   0.4315715  -0.8219687), wk =   0.0250000
        k(   41) = (   0.2000000   0.6473573   0.0000000), wk =   0.0250000
        k(   42) = (   0.2000000   0.6473573   0.2054922), wk =   0.0500000
        k(   43) = (   0.2000000   0.6473573   0.4109844), wk =   0.0500000
        k(   44) = (   0.2000000   0.6473573   0.6164765), wk =   0.0500000
        k(   45) = (   0.2000000   0.6473573  -0.8219687), wk =   0.0250000
        k(   46) = (   0.2000000  -0.8631430   0.0000000), wk =   0.0125000
        k(   47) = (   0.2000000  -0.8631430   0.2054922), wk =   0.0250000
        k(   48) = (   0.2000000  -0.8631430   0.4109844), wk =   0.0250000
        k(   49) = (   0.2000000  -0.8631430   0.6164765), wk =   0.0250000
        k(   50) = (   0.2000000  -0.8631430  -0.8219687), wk =   0.0125000
        k(   51) = (   0.4000000   0.0000000   0.0000000), wk =   0.0125000
        k(   52) = (   0.4000000   0.0000000   0.2054922), wk =   0.0250000
        k(   53) = (   0.4000000   0.0000000   0.4109844), wk =   0.0250000
[...]
        k(   10) = (   0.0000000   0.1250000  -0.5000000), wk =   0.0125000
        k(   11) = (   0.0000000   0.2500000   0.0000000), wk =   0.0125000
        k(   12) = (   0.0000000   0.2500000   0.1250000), wk =   0.0250000
        k(   13) = (   0.0000000   0.2500000   0.2500000), wk =   0.0250000
        k(   14) = (   0.0000000   0.2500000   0.3750000), wk =   0.0250000
        k(   15) = (   0.0000000   0.2500000  -0.5000000), wk =   0.0125000
        k(   16) = (   0.0000000   0.3750000   0.0000000), wk =   0.0125000
        k(   17) = (   0.0000000   0.3750000   0.1250000), wk =   0.0250000
        k(   18) = (   0.0000000   0.3750000   0.2500000), wk =   0.0250000
        k(   19) = (   0.0000000   0.3750000   0.3750000), wk =   0.0250000
        k(   20) = (   0.0000000   0.3750000  -0.5000000), wk =   0.0125000
        k(   21) = (   0.0000000  -0.5000000   0.0000000), wk =   0.0062500
        k(   22) = (   0.0000000  -0.5000000   0.1250000), wk =   0.0125000
        k(   23) = (   0.0000000  -0.5000000   0.2500000), wk =   0.0125000
        k(   24) = (   0.0000000  -0.5000000   0.3750000), wk =   0.0125000
        k(   25) = (   0.0000000  -0.5000000  -0.5000000), wk =   0.0062500
        k(   26) = (   0.2000000   0.0000000   0.0000000), wk =   0.0125000
        k(   27) = (   0.2000000   0.0000000   0.1250000), wk =   0.0250000
        k(   28) = (   0.2000000   0.0000000   0.2500000), wk =   0.0250000
        k(   29) = (   0.2000000   0.0000000   0.3750000), wk =   0.0250000
        k(   30) = (   0.2000000   0.0000000  -0.5000000), wk =   0.0125000
        k(   31) = (   0.2000000   0.1250000   0.0000000), wk =   0.0250000
        k(   32) = (   0.2000000   0.1250000   0.1250000), wk =   0.0500000
        k(   33) = (   0.2000000   0.1250000   0.2500000), wk =   0.0500000
        k(   34) = (   0.2000000   0.1250000   0.3750000), wk =   0.0500000
        k(   35) = (   0.2000000   0.1250000  -0.5000000), wk =   0.0250000
        k(   36) = (   0.2000000   0.2500000   0.0000000), wk =   0.0250000
        k(   37) = (   0.2000000   0.2500000   0.1250000), wk =   0.0500000
        k(   38) = (   0.2000000   0.2500000   0.2500000), wk =   0.0500000
        k(   39) = (   0.2000000   0.2500000   0.3750000), wk =   0.0500000
        k(   40) = (   0.2000000   0.2500000  -0.5000000), wk =   0.0250000
        k(   41) = (   0.2000000   0.3750000   0.0000000), wk =   0.0250000
        k(   42) = (   0.2000000   0.3750000   0.1250000), wk =   0.0500000
        k(   43) = (   0.2000000   0.3750000   0.2500000), wk =   0.0500000
        k(   44) = (   0.2000000   0.3750000   0.3750000), wk =   0.0500000
        k(   45) = (   0.2000000   0.3750000  -0.5000000), wk =   0.0250000
        k(   46) = (   0.2000000  -0.5000000   0.0000000), wk =   0.0125000
        k(   47) = (   0.2000000  -0.5000000   0.1250000), wk =   0.0250000
        k(   48) = (   0.2000000  -0.5000000   0.2500000), wk =   0.0250000
        k(   49) = (   0.2000000  -0.5000000   0.3750000), wk =   0.0250000
        k(   50) = (   0.2000000  -0.5000000  -0.5000000), wk =   0.0125000
        k(   51) = (   0.4000000   0.0000000   0.0000000), wk =   0.0125000
        k(   52) = (   0.4000000   0.0000000   0.1250000), wk =   0.0250000
        k(   53) = (   0.4000000   0.0000000   0.2500000), wk =   0.0250000
        k(   54) = (   0.4000000   0.0000000   0.3750000), wk =   0.0250000
        k(   55) = (   0.4000000   0.0000000  -0.5000000), wk =   0.0125000
        k(   56) = (   0.4000000   0.1250000   0.0000000), wk =   0.0250000
        k(   57) = (   0.4000000   0.1250000   0.1250000), wk =   0.0500000
        k(   58) = (   0.4000000   0.1250000   0.2500000), wk =   0.0500000
        k(   59) = (   0.4000000   0.1250000   0.3750000), wk =   0.0500000
        k(   60) = (   0.4000000   0.1250000  -0.5000000), wk =   0.0250000
        k(   61) = (   0.4000000   0.2500000   0.0000000), wk =   0.0250000
        k(   62) = (   0.4000000   0.2500000   0.1250000), wk =   0.0500000
        k(   63) = (   0.4000000   0.2500000   0.2500000), wk =   0.0500000
        k(   64) = (   0.4000000   0.2500000   0.3750000), wk =   0.0500000
        k(   65) = (   0.4000000   0.2500000  -0.5000000), wk =   0.0250000
        k(   66) = (   0.4000000   0.3750000   0.0000000), wk =   0.0250000
        k(   67) = (   0.4000000   0.3750000   0.1250000), wk =   0.0500000
        k(   68) = (   0.4000000   0.3750000   0.2500000), wk =   0.0500000
        k(   69) = (   0.4000000   0.3750000   0.3750000), wk =   0.0500000
        k(   70) = (   0.4000000   0.3750000  -0.5000000), wk =   0.0250000
        k(   71) = (   0.4000000  -0.5000000   0.0000000), wk =   0.0125000
        k(   72) = (   0.4000000  -0.5000000   0.1250000), wk =   0.0250000
        k(   73) = (   0.4000000  -0.5000000   0.2500000), wk =   0.0250000
        k(   74) = (   0.4000000  -0.5000000   0.3750000), wk =   0.0250000
        k(   75) = (   0.4000000  -0.5000000  -0.5000000), wk =   0.0125000

     Largest allocated arrays     est. size (Mb)     dimensions
     Largest temporary arrays     est. size (Mb)     dimensions

     Check: negative/imaginary core charge=   -0.000028    0.000000

     Initial potential from superposition of free atoms

     starting charge  137.99648, renormalised to  138.00000
     Starting wfc are  112 randomized atomic wfcs
     Checking if some PAW data can be deallocated...
       node   10, deallocated PAW data for type:  1
       node   11, deallocated PAW data for type:  1

     Writing output data file fe4n.save

     Self-consistent Calculation

     iteration #  1     ecut=   105.00 Ry     beta=0.40
     Davidson diagonalization with overlap
     c_bands:  2 eigenvalues not converged
     c_bands:  1 eigenvalues not converged
     c_bands:  1 eigenvalues not converged
     c_bands:  1 eigenvalues not converged
     ethr =  1.00E-06,  avg # of iterations = 12.9

[...]

     total energy              =   -2674.38318436 Ry
     Harris-Foulkes estimate   =   -2674.38318436 Ry
     estimated scf accuracy    <          6.1E-11 Ry

     iteration # 19     ecut=   105.00 Ry     beta=0.40
     Davidson diagonalization with overlap
     ethr =  1.00E-13,  avg # of iterations =  2.8

     End of self-consistent calculation

[...]

          k = 0.3592-0.9000-0.8818 ( 12052 PWs)   bands (ev):

   -68.6449 -68.6446 -68.6247 -68.6247 -68.5973 -68.5970 -67.9998 -67.9998
   -35.3081 -35.2722 -35.0566 -35.0211 -34.9458 -34.9455 -34.6517 -34.6496
   -34.6421 -34.6309 -34.6274 -34.6208 -34.4924 -34.4861 -34.4722 -34.4629
   -34.4107 -34.4107 -34.0840 -34.0824 -34.0532 -34.0489 -34.0484 -34.0446
     1.8645   2.0930   9.9401   9.9431  10.0413  10.0560  10.5203  11.1858
    14.4772  14.6102  15.4520  15.4661  15.6358  15.6507  15.8243  15.9958
    16.5072  16.5253  16.7489  16.7892  16.7960  16.8007  16.8261  16.9622
    16.9691  17.0521  17.1412  17.1412  17.2828  17.3305  17.4802  17.7189
    18.4537  18.4758  18.5776  18.6399  18.7307  18.7705  18.8343  18.8359
    18.9095  19.1533  19.5048  19.5538  19.5788  19.6531  20.1081  20.4156
    20.7646  21.2658  22.4498

     occupation numbers
     1.0000   1.0000   1.0000   1.0000   1.0000   1.0000   1.0000   1.0000
     1.0000   1.0000   1.0000   1.0000   1.0000   1.0000   1.0000   1.0000
     1.0000   1.0000   1.0000   1.0000   1.0000   1.0000   1.0000   1.0000
     1.0000   1.0000   1.0000   1.0000   1.0000   1.0000   1.0000   1.0000
     1.0000   1.0000   1.0000   1.0000   1.0000   1.0000   1.0000   1.0000
     1.0000   1.0000   1.0000   1.0000   1.0000   1.0000   1.0000   1.0000
     1.0000   1.0000   1.0000   1.0000   1.0000   1.0000   1.0000   1.0000
     1.0000   1.0000   1.0000   1.0000   1.0000   1.0000   1.0000   1.0000
     1.0808   1.0708   0.8932   0.6843   0.3549   0.2383   0.1086   0.1062
     0.0337   0.0001   0.0000   0.0000   0.0000   0.0000   0.0000   0.0000
     0.0000   0.0000   0.0000

     the Fermi energy is    18.7170 ev

!    total energy              =   -2674.38318436 Ry
     Harris-Foulkes estimate   =   -2674.38318436 Ry
     estimated scf accuracy    <          1.8E-11 Ry

     The total energy is the sum of the following terms:

     one-electron contribution =    -890.97276767 Ry
     hartree contribution      =     539.45308065 Ry
     xc contribution           =    -289.13179200 Ry
     ewald contribution        =   -1424.50514834 Ry
     one-center paw contrib.   =    -609.22628384 Ry
     smearing contrib. (-TS)   =      -0.00027316 Ry

     convergence has been achieved in  19 iterations

     Forces acting on atoms (Ry/au):

     atom    1 type  1   force =     0.00000000    0.00000000   -0.00000570
     atom    2 type  1   force =     0.00000000    0.00000000    0.00000570
     atom    3 type  1   force =     0.00000000    0.00000000    0.00001520
     atom    4 type  1   force =     0.00000000    0.00000000   -0.00001520
     atom    5 type  1   force =     0.00000000    0.00000000    0.00000000
     atom    6 type  1   force =     0.00000000    0.00000000    0.00000000
     atom    7 type  1   force =     0.00000000    0.00000000    0.00000000
     atom    8 type  1   force =     0.00000000    0.00000000    0.00000000
     atom    9 type  2   force =     0.00000000    0.00000000    0.00000595
     atom   10 type  2   force =     0.00000000    0.00000000   -0.00000595
     The non-local contrib.  to forces
     atom    1 type  1   force =     0.00000000    0.00000000   -0.08001846
     atom    2 type  1   force =     0.00000000    0.00000000    0.08001846
     atom    3 type  1   force =     0.00000000    0.00000000    0.01264612
     atom    4 type  1   force =     0.00000000    0.00000000   -0.01264612
     atom    5 type  1   force =     0.00000000   -0.00000000    0.00000000
     atom    6 type  1   force =     0.00000000    0.00000000    0.00000000
     atom    7 type  1   force =     0.00000000    0.00000000    0.00000000
     atom    8 type  1   force =     0.00000000    0.00000000    0.00000000
     atom    9 type  2   force =     0.00000000    0.00000000    0.11024658
     atom   10 type  2   force =     0.00000000    0.00000000   -0.11024658
     The ionic contribution  to forces
     atom    1 type  1   force =    -0.00000000    0.00000000   -3.01262155
     atom    2 type  1   force =     0.00000000    0.00000000    3.01262155
     atom    3 type  1   force =    -0.00000000   -0.00000000    3.53241972
     atom    4 type  1   force =     0.00000000   -0.00000000   -3.53241972
     atom    5 type  1   force =    -0.00000000   -0.00000000    0.00000000
     atom    6 type  1   force =     0.00000000   -0.00000000    0.00000000
     atom    7 type  1   force =    -0.00000000    0.00000000   -0.00000000
     atom    8 type  1   force =     0.00000000    0.00000000   -0.00000000
     atom    9 type  2   force =    -0.00000000   -0.00000000   -1.36933351
     atom   10 type  2   force =    -0.00000000   -0.00000000    1.36933351
     The local contribution  to forces
     atom    1 type  1   force =    -0.00000000    0.00000000    3.09576387
     atom    2 type  1   force =     0.00000000    0.00000000   -3.09576387
     atom    3 type  1   force =    -0.00000000   -0.00000000   -3.54476867
     atom    4 type  1   force =     0.00000000   -0.00000000    3.54476867
     atom    5 type  1   force =    -0.00000000   -0.00000000    0.00000000
     atom    6 type  1   force =     0.00000000   -0.00000000    0.00000000
     atom    7 type  1   force =    -0.00000000    0.00000000   -0.00000000
     atom    8 type  1   force =     0.00000000    0.00000000   -0.00000000
     atom    9 type  2   force =    -0.00000000   -0.00000000    1.26027549
     atom   10 type  2   force =     0.00000000   -0.00000000   -1.26027549
     The core correction contribution to forces
     atom    1 type  1   force =     0.00000000    0.00000000   -0.00312837
     atom    2 type  1   force =    -0.00000000   -0.00000000    0.00312837
     atom    3 type  1   force =     0.00000000    0.00000000   -0.00028311
     atom    4 type  1   force =    -0.00000000    0.00000000    0.00028311
     atom    5 type  1   force =     0.00000000    0.00000000   -0.00000000
     atom    6 type  1   force =    -0.00000000    0.00000000   -0.00000000
     atom    7 type  1   force =    -0.00000000    0.00000000    0.00000000
     atom    8 type  1   force =    -0.00000000   -0.00000000    0.00000000
     atom    9 type  2   force =     0.00000000    0.00000000   -0.00118201
     atom   10 type  2   force =    -0.00000000    0.00000000    0.00118201
     The Hubbard contrib.    to forces
     atom    1 type  1   force =     0.00000000    0.00000000    0.00000000
     atom    2 type  1   force =     0.00000000    0.00000000    0.00000000
     atom    3 type  1   force =     0.00000000    0.00000000    0.00000000
     atom    4 type  1   force =     0.00000000    0.00000000    0.00000000
     atom    5 type  1   force =     0.00000000    0.00000000    0.00000000
     atom    6 type  1   force =     0.00000000    0.00000000    0.00000000
     atom    7 type  1   force =     0.00000000    0.00000000    0.00000000
     atom    8 type  1   force =     0.00000000    0.00000000    0.00000000
     atom    9 type  2   force =     0.00000000    0.00000000    0.00000000
     atom   10 type  2   force =     0.00000000    0.00000000    0.00000000
     The SCF correction term to forces
     atom    1 type  1   force =    -0.00000000    0.00000000   -0.00000118
     atom    2 type  1   force =    -0.00000000   -0.00000000    0.00000118
     atom    3 type  1   force =     0.00000000    0.00000000    0.00000114
     atom    4 type  1   force =     0.00000000    0.00000000   -0.00000114
     atom    5 type  1   force =    -0.00000000   -0.00000000   -0.00000000
     atom    6 type  1   force =    -0.00000000   -0.00000000   -0.00000000
     atom    7 type  1   force =    -0.00000000   -0.00000000    0.00000000
     atom    8 type  1   force =     0.00000000    0.00000000    0.00000000
     atom    9 type  2   force =     0.00000000    0.00000000   -0.00000060
     atom   10 type  2   force =    -0.00000000   -0.00000000    0.00000060

     Total force =     0.000024     Total SCF correction =     0.000002
     SCF correction compared to forces is large: reduce conv_thr to get better values

     entering subroutine stress ...

          total   stress  (Ry/bohr**3)                   (kbar)     P=    1.17
   0.00001202   0.00000000   0.00000000          1.77      0.00      0.00
   0.00000000   0.00000569   0.00000000          0.00      0.84      0.00
   0.00000000   0.00000000   0.00000616          0.00      0.00      0.91

     kinetic stress (kbar)  79500.63      0.00      0.00
                                0.00  79539.69      0.00
                                0.00      0.00  79514.76

     local   stress (kbar)  62174.26      0.00     -0.00
                                0.00  61704.74     -0.00
                               -0.00     -0.00  63679.49

     nonloc. stress (kbar) -58401.41      0.00      0.00
                                0.00 -58391.46      0.00
                                0.00      0.00 -58363.33

     hartree stress (kbar)  39825.39      0.00     -0.00
                                0.00  40050.96     -0.00
                               -0.00     -0.00  39224.41

     exc-cor stress (kbar)  -2934.90     -0.00      0.00
                               -0.00  -2934.37      0.00
                                0.00      0.00  -2934.93

     corecor stress (kbar) -15581.21      0.00      0.00
                                0.00 -15583.49      0.00
                                0.00      0.00 -15582.66

     ewald   stress (kbar)-104580.98      0.00      0.00
                                0.00-104385.24     -0.00
                                0.00     -0.00-105536.84

     hubbard stress (kbar)      0.00      0.00      0.00
                                0.00      0.00      0.00
                                0.00      0.00      0.00

     london  stress (kbar)      0.00      0.00      0.00
                                0.00      0.00      0.00
                                0.00      0.00      0.00

     XDM     stress (kbar)      0.00      0.00      0.00
                                0.00      0.00      0.00
                                0.00      0.00      0.00

     dft-nl  stress (kbar)      0.00      0.00      0.00
                                0.00      0.00      0.00
                                0.00      0.00      0.00

     Writing output data file fe4n.save

     General routines

     Parallel routines

     PAW routines

   This run was terminated on:  17:19:13   9Nov2020

   JOB DONE.