     Program PWSCF v.5.2.0 starts on 14Nov2020 at 13:26:32

     Current dimensions of program PWSCF are:
     Max number of different atomic species (ntypx) = 10
     Max number of k-points (npk) =  40000
     Max angular momentum in pseudopotentials (lmaxx) =  3

     IMPORTANT: XC functional enforced from input :
     Exchange-correlation      = PBE ( 1  4  3  4 0 0)
     Any further DFT definition will be discarded
     Please, verify this is what you really want

               file Fe.pbe-spn-kjpaw_psl.0.2.1.UPF: wavefunction(s)  3D renormalized

     bravais-lattice index     =            0
     lattice parameter (alat)  =      12.3840  a.u.
     unit-cell volume          =     669.2381 (a.u.)^3
     number of atoms/cell      =           10
     number of atomic types    =            2
     number of electrons       =       138.00
     number of Kohn-Sham states=           83
     kinetic-energy cutoff     =     105.0000  Ry
     charge density cutoff     =     735.0000  Ry
     convergence threshold     =      2.0E-09
     mixing beta               =       0.4000
     number of iterations used =            8  plain     mixing
     Exchange-correlation      = PBE ( 1  4  3  4 0 0)
     nstep                     =           50

     celldm(1)=  12.383961  celldm(2)=   0.000000  celldm(3)=   0.000000
     celldm(4)=   0.000000  celldm(5)=   0.000000  celldm(6)=   0.000000

     crystal axes: (cart. coord. in units of alat)
               a(1) = (   1.000000   0.000000   0.000000 )
               a(2) = (   0.000000   0.579278   0.000000 )
               a(3) = (   0.000000   0.000000   0.608296 )

     reciprocal axes: (cart. coord. in units 2 pi/alat)
               b(1) = (  1.000000  0.000000  0.000000 )
               b(2) = (  0.000000  1.726286  0.000000 )
               b(3) = (  0.000000  0.000000  1.643937 )

     PseudoPot. # 1 for Fe read from file:
     pseudo/Fe.pbe-spn-kjpaw_psl.0.2.1.UPF
     MD5 check sum: e86618425769142926afa95317d90200
     Pseudo is Projector augmented-wave + core cor, Zval = 16.0
     Generated using "atomic" code by A. Dal Corso  v.5.0.99 svn rev. 10869
     Shape of augmentation charge: PSQ
     Using radial grid of 1191 points,  6 beta functions with:
                l(1) =   0
                l(2) =   0
                l(3) =   1
                l(4) =   1
                l(5) =   2
                l(6) =   2
     Q(r) pseudized with 0 coefficients

     PseudoPot. # 2 for  N read from file:
     pseudo/N.pbe-n-radius_5.UPF
     MD5 check sum: 16739722b17309cd8fe442a2ace49922
     Pseudo is Ultrasoft + core correction, Zval =  5.0
     Generated using "atomic" code by A. Dal Corso  v.5.1
     Using radial grid of 1085 points,  4 beta functions with:
                l(1) =   0
                l(2) =   0
                l(3) =   1
                l(4) =   1
     Q(r) pseudized with 0 coefficients

     atomic species   valence    mass     pseudopotential
        Fe            16.00    55.84500     Fe( 1.00)
        N              5.00    14.00650      N( 1.00)

      8 Sym. Ops., with inversion, found ( 4 have fractional translation)

                                    s                        frac. trans.

      isym =  1     identity

 cryst.   s( 1) = (     1          0          0      )
                  (     0          1          0      )
                  (     0          0          1      )

 cart.    s( 1) = (  1.0000000  0.0000000  0.0000000 )
                  (  0.0000000  1.0000000  0.0000000 )
                  (  0.0000000  0.0000000  1.0000000 )

      isym =  2     180 deg rotation - cart. axis [0,0,1]

 cryst.   s( 2) = (    -1          0          0      )    f =(  0.5000000 )
                  (     0         -1          0      )       (  0.0000000 )
                  (     0          0          1      )       (  0.0000000 )

 cart.    s( 2) = ( -1.0000000  0.0000000  0.0000000 )    f =(  0.5000000 )
                  (  0.0000000 -1.0000000  0.0000000 )       (  0.0000000 )
                  (  0.0000000  0.0000000  1.0000000 )       (  0.0000000 )

[...]

      isym =  5     inversion

[...]

      isym =  6     inv. 180 deg rotation - cart. axis [0,0,1]

[...]

     point group D_2h (mmm)
     there are  8 classes
     the character table:

       E     C2    C2'   C2''  i     s_v   s_v'  s_v''
A_g    1.00  1.00  1.00  1.00  1.00  1.00  1.00  1.00
B_1g   1.00  1.00 -1.00 -1.00  1.00  1.00 -1.00 -1.00
B_2g   1.00 -1.00  1.00 -1.00  1.00 -1.00  1.00 -1.00
B_3g   1.00 -1.00 -1.00  1.00  1.00 -1.00 -1.00  1.00
A_u    1.00  1.00  1.00  1.00 -1.00 -1.00 -1.00 -1.00
B_1u   1.00  1.00 -1.00 -1.00 -1.00 -1.00  1.00  1.00
B_2u   1.00 -1.00  1.00 -1.00 -1.00  1.00 -1.00  1.00
B_3u   1.00 -1.00 -1.00  1.00 -1.00  1.00  1.00 -1.00

     the symmetry operations in each class and the name of the first element:

     E        1
          identity
     C2       2
          180 deg rotation - cart. axis [0,0,1]
     C2'      3
          180 deg rotation - cart. axis [0,1,0]
     C2''     4
          180 deg rotation - cart. axis [1,0,0]
     i        5
          inversion
     s_v      6
          inv. 180 deg rotation - cart. axis [0,0,1]
     s_v'     7
          inv. 180 deg rotation - cart. axis [0,1,0]
     s_v''    8
          inv. 180 deg rotation - cart. axis [1,0,0]

   Cartesian axes

     site n.     atom                  positions (alat units)
         1           Fe  tau(   1) = (   0.2500000   0.0000000   0.2456055  )
         2           Fe  tau(   2) = (   0.7500000   0.0000000   0.3626902  )
         3           Fe  tau(   3) = (   0.2500000   0.2896391   0.5497533  )
         4           Fe  tau(   4) = (   0.7500000   0.2896391   0.0585424  )
         5           Fe  tau(   5) = (   0.0000000   0.2896391   0.3041478  )
         6           Fe  tau(   6) = (   0.5000000   0.2896391   0.3041478  )
         7           Fe  tau(   7) = (   0.0000000   0.0000000   0.0000000  )
         8           Fe  tau(   8) = (   0.5000000   0.0000000   0.0000000  )
         9           N   tau(   9) = (   0.2500000   0.2896391   0.2456055  )
        10           N   tau(  10) = (   0.7500000   0.2896391   0.3626902  )

   Crystallographic axes

     site n.     atom                  positions (cryst. coord.)
         1           Fe  tau(   1) = (  0.2500000  0.0000000  0.4037600  )
         2           Fe  tau(   2) = (  0.7500000  0.0000000  0.5962400  )
         3           Fe  tau(   3) = (  0.2500000  0.5000000  0.9037600  )
         4           Fe  tau(   4) = (  0.7500000  0.5000000  0.0962400  )
         5           Fe  tau(   5) = (  0.0000000  0.5000000  0.5000000  )
         6           Fe  tau(   6) = (  0.5000000  0.5000000  0.5000000  )
         7           Fe  tau(   7) = (  0.0000000  0.0000000  0.0000000  )
         8           Fe  tau(   8) = (  0.5000000  0.0000000  0.0000000  )
         9           N   tau(   9) = (  0.2500000  0.5000000  0.4037600  )
        10           N   tau(  10) = (  0.7500000  0.5000000  0.5962400  )

     number of k points=    75  Marzari-Vanderbilt smearing, width (Ry)=  0.0147
                       cart. coord. in units 2pi/alat
        k(    1) = (   0.0000000   0.0000000   0.0000000), wk =   0.0055556
        k(    2) = (   0.0000000   0.0000000   0.2054922), wk =   0.0111111
        k(    3) = (   0.0000000   0.0000000   0.4109844), wk =   0.0111111
        k(    4) = (   0.0000000   0.0000000   0.6164765), wk =   0.0111111
        k(    5) = (   0.0000000   0.0000000  -0.8219687), wk =   0.0055556
        k(    6) = (   0.0000000   0.1918096   0.0000000), wk =   0.0111111
        k(    7) = (   0.0000000   0.1918096   0.2054922), wk =   0.0222222
        k(    8) = (   0.0000000   0.1918096   0.4109844), wk =   0.0222222
        k(    9) = (   0.0000000   0.1918096   0.6164765), wk =   0.0222222
        k(   10) = (   0.0000000   0.1918096  -0.8219687), wk =   0.0111111
        k(   11) = (   0.0000000   0.3836191   0.0000000), wk =   0.0111111
        k(   12) = (   0.0000000   0.3836191   0.2054922), wk =   0.0222222
        k(   13) = (   0.0000000   0.3836191   0.4109844), wk =   0.0222222
        k(   14) = (   0.0000000   0.3836191   0.6164765), wk =   0.0222222
        k(   15) = (   0.0000000   0.3836191  -0.8219687), wk =   0.0111111
        k(   16) = (   0.0000000   0.5754287   0.0000000), wk =   0.0111111
        k(   17) = (   0.0000000   0.5754287   0.2054922), wk =   0.0222222
        k(   18) = (   0.0000000   0.5754287   0.4109844), wk =   0.0222222
        k(   19) = (   0.0000000   0.5754287   0.6164765), wk =   0.0222222
        k(   20) = (   0.0000000   0.5754287  -0.8219687), wk =   0.0111111
        k(   21) = (   0.0000000   0.7672383   0.0000000), wk =   0.0111111
        k(   22) = (   0.0000000   0.7672383   0.2054922), wk =   0.0222222
        k(   23) = (   0.0000000   0.7672383   0.4109844), wk =   0.0222222
        k(   24) = (   0.0000000   0.7672383   0.6164765), wk =   0.0222222
        k(   25) = (   0.0000000   0.7672383  -0.8219687), wk =   0.0111111
        k(   26) = (   0.2000000   0.0000000   0.0000000), wk =   0.0111111
        k(   27) = (   0.2000000   0.0000000   0.2054922), wk =   0.0222222
        k(   28) = (   0.2000000   0.0000000   0.4109844), wk =   0.0222222
        k(   29) = (   0.2000000   0.0000000   0.6164765), wk =   0.0222222
        k(   30) = (   0.2000000   0.0000000  -0.8219687), wk =   0.0111111
        k(   31) = (   0.2000000   0.1918096   0.0000000), wk =   0.0222222
        k(   32) = (   0.2000000   0.1918096   0.2054922), wk =   0.0444444
        k(   33) = (   0.2000000   0.1918096   0.4109844), wk =   0.0444444
        k(   34) = (   0.2000000   0.1918096   0.6164765), wk =   0.0444444
        k(   35) = (   0.2000000   0.1918096  -0.8219687), wk =   0.0222222
        k(   36) = (   0.2000000   0.3836191   0.0000000), wk =   0.0222222
        k(   37) = (   0.2000000   0.3836191   0.2054922), wk =   0.0444444
        k(   38) = (   0.2000000   0.3836191   0.4109844), wk =   0.0444444
        k(   39) = (   0.2000000   0.3836191   0.6164765), wk =   0.0444444
        k(   40) = (   0.2000000   0.3836191  -0.8219687), wk =   0.0222222
        k(   41) = (   0.2000000   0.5754287   0.0000000), wk =   0.0222222
        k(   42) = (   0.2000000   0.5754287   0.2054922), wk =   0.0444444
        k(   43) = (   0.2000000   0.5754287   0.4109844), wk =   0.0444444
        k(   44) = (   0.2000000   0.5754287   0.6164765), wk =   0.0444444
        k(   45) = (   0.2000000   0.5754287  -0.8219687), wk =   0.0222222
        k(   46) = (   0.2000000   0.7672383   0.0000000), wk =   0.0222222
        k(   47) = (   0.2000000   0.7672383   0.2054922), wk =   0.0444444
        k(   48) = (   0.2000000   0.7672383   0.4109844), wk =   0.0444444
        k(   49) = (   0.2000000   0.7672383   0.6164765), wk =   0.0444444
        k(   50) = (   0.2000000   0.7672383  -0.8219687), wk =   0.0222222
        k(   51) = (   0.4000000   0.0000000   0.0000000), wk =   0.0111111
        k(   52) = (   0.4000000   0.0000000   0.2054922), wk =   0.0222222
        k(   53) = (   0.4000000   0.0000000   0.4109844), wk =   0.0222222
[...]
        k(   12) = (   0.0000000   0.2222222   0.1250000), wk =   0.0222222
        k(   13) = (   0.0000000   0.2222222   0.2500000), wk =   0.0222222
        k(   14) = (   0.0000000   0.2222222   0.3750000), wk =   0.0222222
        k(   15) = (   0.0000000   0.2222222  -0.5000000), wk =   0.0111111
        k(   16) = (   0.0000000   0.3333333   0.0000000), wk =   0.0111111
        k(   17) = (   0.0000000   0.3333333   0.1250000), wk =   0.0222222
        k(   18) = (   0.0000000   0.3333333   0.2500000), wk =   0.0222222
        k(   19) = (   0.0000000   0.3333333   0.3750000), wk =   0.0222222
        k(   20) = (   0.0000000   0.3333333  -0.5000000), wk =   0.0111111
        k(   21) = (   0.0000000   0.4444444   0.0000000), wk =   0.0111111
        k(   22) = (   0.0000000   0.4444444   0.1250000), wk =   0.0222222
        k(   23) = (   0.0000000   0.4444444   0.2500000), wk =   0.0222222
        k(   24) = (   0.0000000   0.4444444   0.3750000), wk =   0.0222222
        k(   25) = (   0.0000000   0.4444444  -0.5000000), wk =   0.0111111
        k(   26) = (   0.2000000   0.0000000   0.0000000), wk =   0.0111111
        k(   27) = (   0.2000000   0.0000000   0.1250000), wk =   0.0222222
        k(   28) = (   0.2000000   0.0000000   0.2500000), wk =   0.0222222
        k(   29) = (   0.2000000   0.0000000   0.3750000), wk =   0.0222222
        k(   30) = (   0.2000000   0.0000000  -0.5000000), wk =   0.0111111
        k(   31) = (   0.2000000   0.1111111   0.0000000), wk =   0.0222222
        k(   32) = (   0.2000000   0.1111111   0.1250000), wk =   0.0444444
        k(   33) = (   0.2000000   0.1111111   0.2500000), wk =   0.0444444
        k(   34) = (   0.2000000   0.1111111   0.3750000), wk =   0.0444444
        k(   35) = (   0.2000000   0.1111111  -0.5000000), wk =   0.0222222
        k(   36) = (   0.2000000   0.2222222   0.0000000), wk =   0.0222222
        k(   37) = (   0.2000000   0.2222222   0.1250000), wk =   0.0444444
        k(   38) = (   0.2000000   0.2222222   0.2500000), wk =   0.0444444
        k(   39) = (   0.2000000   0.2222222   0.3750000), wk =   0.0444444
        k(   40) = (   0.2000000   0.2222222  -0.5000000), wk =   0.0222222
        k(   41) = (   0.2000000   0.3333333   0.0000000), wk =   0.0222222
        k(   42) = (   0.2000000   0.3333333   0.1250000), wk =   0.0444444
        k(   43) = (   0.2000000   0.3333333   0.2500000), wk =   0.0444444
        k(   44) = (   0.2000000   0.3333333   0.3750000), wk =   0.0444444
        k(   45) = (   0.2000000   0.3333333  -0.5000000), wk =   0.0222222
        k(   46) = (   0.2000000   0.4444444   0.0000000), wk =   0.0222222
        k(   47) = (   0.2000000   0.4444444   0.1250000), wk =   0.0444444
        k(   48) = (   0.2000000   0.4444444   0.2500000), wk =   0.0444444
        k(   49) = (   0.2000000   0.4444444   0.3750000), wk =   0.0444444
        k(   50) = (   0.2000000   0.4444444  -0.5000000), wk =   0.0222222
        k(   51) = (   0.4000000   0.0000000   0.0000000), wk =   0.0111111
        k(   52) = (   0.4000000   0.0000000   0.1250000), wk =   0.0222222
        k(   53) = (   0.4000000   0.0000000   0.2500000), wk =   0.0222222
        k(   54) = (   0.4000000   0.0000000   0.3750000), wk =   0.0222222
        k(   55) = (   0.4000000   0.0000000  -0.5000000), wk =   0.0111111
        k(   56) = (   0.4000000   0.1111111   0.0000000), wk =   0.0222222
        k(   57) = (   0.4000000   0.1111111   0.1250000), wk =   0.0444444
        k(   58) = (   0.4000000   0.1111111   0.2500000), wk =   0.0444444
        k(   59) = (   0.4000000   0.1111111   0.3750000), wk =   0.0444444
        k(   60) = (   0.4000000   0.1111111  -0.5000000), wk =   0.0222222
        k(   61) = (   0.4000000   0.2222222   0.0000000), wk =   0.0222222
        k(   62) = (   0.4000000   0.2222222   0.1250000), wk =   0.0444444
        k(   63) = (   0.4000000   0.2222222   0.2500000), wk =   0.0444444
        k(   64) = (   0.4000000   0.2222222   0.3750000), wk =   0.0444444
        k(   65) = (   0.4000000   0.2222222  -0.5000000), wk =   0.0222222
        k(   66) = (   0.4000000   0.3333333   0.0000000), wk =   0.0222222
        k(   67) = (   0.4000000   0.3333333   0.1250000), wk =   0.0444444
        k(   68) = (   0.4000000   0.3333333   0.2500000), wk =   0.0444444
        k(   69) = (   0.4000000   0.3333333   0.3750000), wk =   0.0444444
        k(   70) = (   0.4000000   0.3333333  -0.5000000), wk =   0.0222222
        k(   71) = (   0.4000000   0.4444444   0.0000000), wk =   0.0222222
        k(   72) = (   0.4000000   0.4444444   0.1250000), wk =   0.0444444
        k(   73) = (   0.4000000   0.4444444   0.2500000), wk =   0.0444444
        k(   74) = (   0.4000000   0.4444444   0.3750000), wk =   0.0444444
        k(   75) = (   0.4000000   0.4444444  -0.5000000), wk =   0.0222222

     Largest allocated arrays     est. size (Mb)     dimensions
     Largest temporary arrays     est. size (Mb)     dimensions

     Check: negative/imaginary core charge=   -0.000029    0.000000

     Initial potential from superposition of free atoms

     starting charge  137.99648, renormalised to  138.00000
     Starting wfc are  112 randomized atomic wfcs
     Checking if some PAW data can be deallocated...
       node   20, deallocated PAW data for type:  1
       node   21, deallocated PAW data for type:  1
       node   22, deallocated PAW data for type:  1
       node   23, deallocated PAW data for type:  1

     Writing output data file fe4n.save

     Self-consistent Calculation

     iteration #  1     ecut=   105.00 Ry     beta=0.40
     Davidson diagonalization with overlap
     c_bands:  1 eigenvalues not converged
     c_bands:  1 eigenvalues not converged
     c_bands:  1 eigenvalues not converged
     c_bands:  1 eigenvalues not converged
     c_bands:  1 eigenvalues not converged
     c_bands:  1 eigenvalues not converged
     c_bands:  1 eigenvalues not converged
     c_bands:  1 eigenvalues not converged
     ethr =  1.00E-06,  avg # of iterations = 14.4

[...]

     total energy              =   -2674.32916356 Ry
     Harris-Foulkes estimate   =   -2674.32916356 Ry
     estimated scf accuracy    <          3.8E-11 Ry

     iteration # 19     ecut=   105.00 Ry     beta=0.40
     Davidson diagonalization with overlap
     ethr =  1.00E-13,  avg # of iterations =  1.0

     End of self-consistent calculation

[...]

          k = 0.3699 0.8247-0.9073 ( 11124 PWs)   bands (ev):

   -66.6698 -66.6686 -66.6480 -66.6475 -66.6130 -66.6123 -65.9449 -65.9449
   -33.4820 -33.4332 -33.1292 -33.0800 -32.9895 -32.9888 -32.7119 -32.7088
   -32.7047 -32.6885 -32.6770 -32.6686 -32.4881 -32.4822 -32.4593 -32.4505
   -32.3886 -32.3885 -32.0240 -32.0224 -32.0016 -31.9960 -31.9956 -31.9892
     3.4552   3.7307  11.2530  11.2906  11.4770  11.5371  11.9566  12.6734
    16.1283  16.2849  17.1249  17.1308  17.3717  17.3907  17.6327  17.8296
    18.3019  18.3258  18.5031  18.5825  18.5831  18.6547  18.6686  18.8368
    18.8466  18.9660  19.0371  19.0424  19.1694  19.2695  19.4332  19.6951
    20.4867  20.5530  20.6552  20.7288  20.8179  20.9337  21.0087  21.0120
    21.0716  21.3267  21.6328  21.6371  21.8625  21.8941  22.5774  22.8991
    23.1552  23.7134  24.9969

     occupation numbers
     1.0000   1.0000   1.0000   1.0000   1.0000   1.0000   1.0000   1.0000
     1.0000   1.0000   1.0000   1.0000   1.0000   1.0000   1.0000   1.0000
     1.0000   1.0000   1.0000   1.0000   1.0000   1.0000   1.0000   1.0000
     1.0000   1.0000   1.0000   1.0000   1.0000   1.0000   1.0000   1.0000
     1.0000   1.0000   1.0000   1.0000   1.0000   1.0000   1.0000   1.0000
     1.0000   1.0000   1.0000   1.0000   1.0000   1.0000   1.0000   1.0000
     1.0000   1.0000   1.0000   1.0000   1.0000   1.0000   1.0000   1.0000
     1.0000   1.0000   1.0000   1.0000   1.0000   1.0000   1.0000   1.0000
     1.0673   1.0831   0.9812   0.7712   0.4428   0.1303   0.0426   0.0403
     0.0136   0.0000   0.0000   0.0000   0.0000   0.0000   0.0000   0.0000
     0.0000   0.0000   0.0000

     the Fermi energy is    20.8300 ev

!    total energy              =   -2674.32916356 Ry
     Harris-Foulkes estimate   =   -2674.32916356 Ry
     estimated scf accuracy    <          4.5E-12 Ry

     The total energy is the sum of the following terms:

     one-electron contribution =    -824.28261508 Ry
     hartree contribution      =     516.15756202 Ry
     xc contribution           =    -289.92014168 Ry
     ewald contribution        =   -1467.03598865 Ry
     one-center paw contrib.   =    -609.24877918 Ry
     smearing contrib. (-TS)   =       0.00079901 Ry

     convergence has been achieved in  19 iterations

     Forces acting on atoms (Ry/au):

     atom    1 type  1   force =     0.00000000    0.00000000    0.00002578
     atom    2 type  1   force =     0.00000000    0.00000000   -0.00002578
     atom    3 type  1   force =     0.00000000    0.00000000   -0.00001492
     atom    4 type  1   force =     0.00000000    0.00000000    0.00001492
     atom    5 type  1   force =     0.00000000    0.00000000    0.00000000
     atom    6 type  1   force =    -0.00000000    0.00000000    0.00000000
     atom    7 type  1   force =     0.00000000    0.00000000    0.00000000
     atom    8 type  1   force =    -0.00000000    0.00000000    0.00000000
     atom    9 type  2   force =     0.00000000    0.00000000    0.00001753
     atom   10 type  2   force =     0.00000000    0.00000000   -0.00001753
     The non-local contrib.  to forces
     atom    1 type  1   force =     0.00000000    0.00000000   -0.08082874
     atom    2 type  1   force =     0.00000000    0.00000000    0.08082874
     atom    3 type  1   force =     0.00000000    0.00000000    0.02410379
     atom    4 type  1   force =     0.00000000    0.00000000   -0.02410379
     atom    5 type  1   force =     0.00000000    0.00000000    0.00000000
     atom    6 type  1   force =    -0.00000000    0.00000000    0.00000000
     atom    7 type  1   force =     0.00000000   -0.00000000    0.00000000
     atom    8 type  1   force =     0.00000000    0.00000000    0.00000000
     atom    9 type  2   force =     0.00000000    0.00000000    0.11828466
     atom   10 type  2   force =     0.00000000    0.00000000   -0.11828466
     The ionic contribution  to forces
     atom    1 type  1   force =     0.00000000   -0.00000000   -3.09491725
     atom    2 type  1   force =     0.00000000   -0.00000000    3.09491725
     atom    3 type  1   force =     0.00000000    0.00000000    4.18390723
     atom    4 type  1   force =     0.00000000    0.00000000   -4.18390723
     atom    5 type  1   force =    -0.00000000    0.00000000   -0.00000000
     atom    6 type  1   force =    -0.00000000    0.00000000   -0.00000000
     atom    7 type  1   force =     0.00000000   -0.00000000    0.00000000
     atom    8 type  1   force =    -0.00000000   -0.00000000    0.00000000
     atom    9 type  2   force =     0.00000000    0.00000000   -1.64919698
     atom   10 type  2   force =     0.00000000    0.00000000    1.64919698
     The local contribution  to forces
     atom    1 type  1   force =     0.00000000    0.00000000    3.17862418
     atom    2 type  1   force =     0.00000000    0.00000000   -3.17862418
     atom    3 type  1   force =     0.00000000    0.00000000   -4.20773416
     atom    4 type  1   force =     0.00000000    0.00000000    4.20773416
     atom    5 type  1   force =    -0.00000000    0.00000000    0.00000000
     atom    6 type  1   force =    -0.00000000    0.00000000    0.00000000
     atom    7 type  1   force =    -0.00000000    0.00000000    0.00000000
     atom    8 type  1   force =    -0.00000000    0.00000000    0.00000000
     atom    9 type  2   force =     0.00000000    0.00000000    1.53218272
     atom   10 type  2   force =     0.00000000    0.00000000   -1.53218272
     The core correction contribution to forces
     atom    1 type  1   force =    -0.00000000    0.00000000   -0.00285299
     atom    2 type  1   force =    -0.00000000   -0.00000000    0.00285299
     atom    3 type  1   force =    -0.00000000   -0.00000000   -0.00029169
     atom    4 type  1   force =    -0.00000000   -0.00000000    0.00029169
     atom    5 type  1   force =    -0.00000000   -0.00000000   -0.00000000
     atom    6 type  1   force =     0.00000000   -0.00000000   -0.00000000
     atom    7 type  1   force =    -0.00000000   -0.00000000    0.00000000
     atom    8 type  1   force =     0.00000000   -0.00000000   -0.00000000
     atom    9 type  2   force =    -0.00000000   -0.00000000   -0.00125291
     atom   10 type  2   force =    -0.00000000   -0.00000000    0.00125291
     The Hubbard contrib.    to forces
     atom    1 type  1   force =     0.00000000    0.00000000    0.00000000
     atom    2 type  1   force =     0.00000000    0.00000000    0.00000000
     atom    3 type  1   force =     0.00000000    0.00000000    0.00000000
     atom    4 type  1   force =     0.00000000    0.00000000    0.00000000
     atom    5 type  1   force =     0.00000000    0.00000000    0.00000000
     atom    6 type  1   force =     0.00000000    0.00000000    0.00000000
     atom    7 type  1   force =     0.00000000    0.00000000    0.00000000
     atom    8 type  1   force =     0.00000000    0.00000000    0.00000000
     atom    9 type  2   force =     0.00000000    0.00000000    0.00000000
     atom   10 type  2   force =     0.00000000    0.00000000    0.00000000
     The SCF correction term to forces
     atom    1 type  1   force =    -0.00000000    0.00000000    0.00000057
     atom    2 type  1   force =    -0.00000000    0.00000000   -0.00000057
     atom    3 type  1   force =     0.00000000   -0.00000000   -0.00000009
     atom    4 type  1   force =     0.00000000    0.00000000    0.00000009
     atom    5 type  1   force =    -0.00000000    0.00000000   -0.00000000
     atom    6 type  1   force =     0.00000000    0.00000000   -0.00000000
     atom    7 type  1   force =     0.00000000    0.00000000   -0.00000000
     atom    8 type  1   force =    -0.00000000   -0.00000000   -0.00000000
     atom    9 type  2   force =    -0.00000000   -0.00000000    0.00000005
     atom   10 type  2   force =     0.00000000   -0.00000000   -0.00000005

     Total force =     0.000049     Total SCF correction =     0.000001

     entering subroutine stress ...

          total   stress  (Ry/bohr**3)                   (kbar)     P=  300.98
   0.00204377   0.00000000   0.00000000        300.65      0.00      0.00
   0.00000000   0.00204791   0.00000000          0.00    301.26      0.00
   0.00000000   0.00000000   0.00204642          0.00      0.00    301.04

     kinetic stress (kbar)  88387.92      0.00      0.00
                                0.00  88440.10      0.00
                                0.00      0.00  88409.06

     local   stress (kbar)  73357.18      0.00      0.00
                                0.00  72592.41     -0.00
                                0.00     -0.00  74955.23

     nonloc. stress (kbar) -65038.94      0.00      0.00
                                0.00 -65037.87      0.00
                                0.00      0.00 -65002.17

     hartree stress (kbar)  41601.22     -0.00     -0.00
                               -0.00  41929.09      0.00
                               -0.00      0.00  40945.00

     exc-cor stress (kbar)  -3262.12      0.00     -0.00
                                0.00  -3261.19      0.00
                               -0.00      0.00  -3261.83

     corecor stress (kbar) -17019.66      0.00      0.00
                                0.00 -17022.40      0.00
                                0.00      0.00 -17021.23

     ewald   stress (kbar)-117724.95      0.00     -0.00
                                0.00-117338.88      0.00
                               -0.00      0.00-118723.03

     hubbard stress (kbar)      0.00      0.00      0.00
                                0.00      0.00      0.00
                                0.00      0.00      0.00

     london  stress (kbar)      0.00      0.00      0.00
                                0.00      0.00      0.00
                                0.00      0.00      0.00

     XDM     stress (kbar)      0.00      0.00      0.00
                                0.00      0.00      0.00
                                0.00      0.00      0.00

     dft-nl  stress (kbar)      0.00      0.00      0.00
                                0.00      0.00      0.00
                                0.00      0.00      0.00

     Writing output data file fe4n.save

     General routines

     Parallel routines

     PAW routines

   This run was terminated on:  14:46:42  14Nov2020

   JOB DONE.