     Program PWSCF v.5.2.0 starts on 16Nov2020 at 17:57:50

     Current dimensions of program PWSCF are:
     Max number of different atomic species (ntypx) = 10
     Max number of k-points (npk) =  40000
     Max angular momentum in pseudopotentials (lmaxx) =  3

     IMPORTANT: XC functional enforced from input :
     Exchange-correlation      = PBE ( 1  4  3  4 0 0)
     Any further DFT definition will be discarded
     Please, verify this is what you really want

               file Fe.pbe-spn-kjpaw_psl.0.2.1.UPF: wavefunction(s)  3D renormalized

     bravais-lattice index     =            0
     lattice parameter (alat)  =      12.3840  a.u.
     unit-cell volume          =     669.2381 (a.u.)^3
     number of atoms/cell      =           10
     number of atomic types    =            2
     number of electrons       =       138.00
     number of Kohn-Sham states=           83
     kinetic-energy cutoff     =     140.0000  Ry
     charge density cutoff     =     980.0000  Ry
     convergence threshold     =      2.0E-09
     mixing beta               =       0.4000
     number of iterations used =            8  plain     mixing
     Exchange-correlation      = PBE ( 1  4  3  4 0 0)
     nstep                     =           50

     celldm(1)=  12.383961  celldm(2)=   0.000000  celldm(3)=   0.000000
     celldm(4)=   0.000000  celldm(5)=   0.000000  celldm(6)=   0.000000

     crystal axes: (cart. coord. in units of alat)
               a(1) = (   1.000000   0.000000   0.000000 )
               a(2) = (   0.000000   0.579278   0.000000 )
               a(3) = (   0.000000   0.000000   0.608296 )

     reciprocal axes: (cart. coord. in units 2 pi/alat)
               b(1) = (  1.000000  0.000000  0.000000 )
               b(2) = (  0.000000  1.726286  0.000000 )
               b(3) = (  0.000000  0.000000  1.643937 )

     PseudoPot. # 1 for Fe read from file:
     pseudo/Fe.pbe-spn-kjpaw_psl.0.2.1.UPF
     MD5 check sum: e86618425769142926afa95317d90200
     Pseudo is Projector augmented-wave + core cor, Zval = 16.0
     Generated using "atomic" code by A. Dal Corso  v.5.0.99 svn rev. 10869
     Shape of augmentation charge: PSQ
     Using radial grid of 1191 points,  6 beta functions with:
                l(1) =   0
                l(2) =   0
                l(3) =   1
                l(4) =   1
                l(5) =   2
                l(6) =   2
     Q(r) pseudized with 0 coefficients

     PseudoPot. # 2 for  N read from file:
     pseudo/N.pbe-n-radius_5.UPF
     MD5 check sum: 16739722b17309cd8fe442a2ace49922
     Pseudo is Ultrasoft + core correction, Zval =  5.0
     Generated using "atomic" code by A. Dal Corso  v.5.1
     Using radial grid of 1085 points,  4 beta functions with:
                l(1) =   0
                l(2) =   0
                l(3) =   1
                l(4) =   1
     Q(r) pseudized with 0 coefficients

     atomic species   valence    mass     pseudopotential
        Fe            16.00    55.84500     Fe( 1.00)
        N              5.00    14.00650      N( 1.00)

      4 Sym. Ops., with inversion, found
          (note:  4 additional sym.ops. were found but ignored
           their fractional translations are incommensurate with FFT grid)

                                    s                        frac. trans.

      isym =  1     identity

 cryst.   s( 1) = (     1          0          0      )
                  (     0          1          0      )
                  (     0          0          1      )

 cart.    s( 1) = (  1.0000000  0.0000000  0.0000000 )
                  (  0.0000000  1.0000000  0.0000000 )
                  (  0.0000000  0.0000000  1.0000000 )

      isym =  2     180 deg rotation - cart. axis [0,1,0]

[...]

      isym =  3     inversion

[...]

      isym =  4     inv. 180 deg rotation - cart. axis [0,1,0]

[...]

     point group C_2h (2/m)
     there are  4 classes
     the character table:

       E     C2    i     s_h
A_g    1.00  1.00  1.00  1.00
B_g    1.00 -1.00  1.00 -1.00
A_u    1.00  1.00 -1.00 -1.00
B_u    1.00 -1.00 -1.00  1.00

     the symmetry operations in each class and the name of the first element:

     E        1
          identity
     C2       2
          180 deg rotation - cart. axis [0,1,0]
     i        3
          inversion
     s_h      4
          inv. 180 deg rotation - cart. axis [0,1,0]

   Cartesian axes

     site n.     atom                  positions (alat units)
         1           Fe  tau(   1) = (   0.2500000   0.0000000   0.2456055  )
         2           Fe  tau(   2) = (   0.7500000   0.0000000   0.3626902  )
         3           Fe  tau(   3) = (   0.2500000   0.2896391   0.5497533  )
         4           Fe  tau(   4) = (   0.7500000   0.2896391   0.0585424  )
         5           Fe  tau(   5) = (   0.0000000   0.2896391   0.3041478  )
         6           Fe  tau(   6) = (   0.5000000   0.2896391   0.3041478  )
         7           Fe  tau(   7) = (   0.0000000   0.0000000   0.0000000  )
         8           Fe  tau(   8) = (   0.5000000   0.0000000   0.0000000  )
         9           N   tau(   9) = (   0.2500000   0.2896391   0.2456055  )
        10           N   tau(  10) = (   0.7500000   0.2896391   0.3626902  )

   Crystallographic axes

     site n.     atom                  positions (cryst. coord.)
         1           Fe  tau(   1) = (  0.2500000  0.0000000  0.4037600  )
         2           Fe  tau(   2) = (  0.7500000  0.0000000  0.5962400  )
         3           Fe  tau(   3) = (  0.2500000  0.5000000  0.9037600  )
         4           Fe  tau(   4) = (  0.7500000  0.5000000  0.0962400  )
         5           Fe  tau(   5) = (  0.0000000  0.5000000  0.5000000  )
         6           Fe  tau(   6) = (  0.5000000  0.5000000  0.5000000  )
         7           Fe  tau(   7) = (  0.0000000  0.0000000  0.0000000  )
         8           Fe  tau(   8) = (  0.5000000  0.0000000  0.0000000  )
         9           N   tau(   9) = (  0.2500000  0.5000000  0.4037600  )
        10           N   tau(  10) = (  0.7500000  0.5000000  0.5962400  )

     number of k points=   105  Marzari-Vanderbilt smearing, width (Ry)=  0.0147
                       cart. coord. in units 2pi/alat
        k(    1) = (   0.0000000   0.0000000   0.0000000), wk =   0.0055556
        k(    2) = (   0.0000000   0.0000000   0.2054922), wk =   0.0111111
        k(    3) = (   0.0000000   0.0000000   0.4109844), wk =   0.0111111
        k(    4) = (   0.0000000   0.0000000   0.6164765), wk =   0.0111111
        k(    5) = (   0.0000000   0.0000000  -0.8219687), wk =   0.0055556
        k(    6) = (   0.0000000   0.1918096   0.0000000), wk =   0.0111111
        k(    7) = (   0.0000000   0.1918096   0.2054922), wk =   0.0222222
        k(    8) = (   0.0000000   0.1918096   0.4109844), wk =   0.0222222
        k(    9) = (   0.0000000   0.1918096   0.6164765), wk =   0.0222222
        k(   10) = (   0.0000000   0.1918096  -0.8219687), wk =   0.0111111
        k(   11) = (   0.0000000   0.3836191   0.0000000), wk =   0.0111111
        k(   12) = (   0.0000000   0.3836191   0.2054922), wk =   0.0222222
        k(   13) = (   0.0000000   0.3836191   0.4109844), wk =   0.0222222
        k(   14) = (   0.0000000   0.3836191   0.6164765), wk =   0.0222222
        k(   15) = (   0.0000000   0.3836191  -0.8219687), wk =   0.0111111
        k(   16) = (   0.0000000   0.5754287   0.0000000), wk =   0.0111111
        k(   17) = (   0.0000000   0.5754287   0.2054922), wk =   0.0222222
        k(   18) = (   0.0000000   0.5754287   0.4109844), wk =   0.0222222
        k(   19) = (   0.0000000   0.5754287   0.6164765), wk =   0.0222222
        k(   20) = (   0.0000000   0.5754287  -0.8219687), wk =   0.0111111
        k(   21) = (   0.0000000   0.7672383   0.0000000), wk =   0.0111111
        k(   22) = (   0.0000000   0.7672383   0.2054922), wk =   0.0222222
        k(   23) = (   0.0000000   0.7672383   0.4109844), wk =   0.0222222
        k(   24) = (   0.0000000   0.7672383   0.6164765), wk =   0.0222222
        k(   25) = (   0.0000000   0.7672383  -0.8219687), wk =   0.0111111
        k(   26) = (   0.2000000   0.0000000   0.0000000), wk =   0.0111111
        k(   27) = (   0.2000000   0.0000000   0.2054922), wk =   0.0111111
        k(   28) = (   0.2000000   0.0000000   0.4109844), wk =   0.0111111
        k(   29) = (   0.2000000   0.0000000   0.6164765), wk =   0.0111111
        k(   30) = (   0.2000000   0.0000000  -0.8219687), wk =   0.0111111
        k(   31) = (   0.2000000   0.1918096   0.0000000), wk =   0.0222222
        k(   32) = (   0.2000000   0.1918096   0.2054922), wk =   0.0222222
        k(   33) = (   0.2000000   0.1918096   0.4109844), wk =   0.0222222
        k(   34) = (   0.2000000   0.1918096   0.6164765), wk =   0.0222222
        k(   35) = (   0.2000000   0.1918096  -0.8219687), wk =   0.0222222
        k(   36) = (   0.2000000   0.3836191   0.0000000), wk =   0.0222222
        k(   37) = (   0.2000000   0.3836191   0.2054922), wk =   0.0222222
        k(   38) = (   0.2000000   0.3836191   0.4109844), wk =   0.0222222
        k(   39) = (   0.2000000   0.3836191   0.6164765), wk =   0.0222222
        k(   40) = (   0.2000000   0.3836191  -0.8219687), wk =   0.0222222
        k(   41) = (   0.2000000   0.5754287   0.0000000), wk =   0.0222222
        k(   42) = (   0.2000000   0.5754287   0.2054922), wk =   0.0222222
        k(   43) = (   0.2000000   0.5754287   0.4109844), wk =   0.0222222
        k(   44) = (   0.2000000   0.5754287   0.6164765), wk =   0.0222222
        k(   45) = (   0.2000000   0.5754287  -0.8219687), wk =   0.0222222
        k(   46) = (   0.2000000   0.7672383   0.0000000), wk =   0.0222222
        k(   47) = (   0.2000000   0.7672383   0.2054922), wk =   0.0222222
        k(   48) = (   0.2000000   0.7672383   0.4109844), wk =   0.0222222
        k(   49) = (   0.2000000   0.7672383   0.6164765), wk =   0.0222222
        k(   50) = (   0.2000000   0.7672383  -0.8219687), wk =   0.0222222
        k(   51) = (   0.4000000   0.0000000   0.0000000), wk =   0.0111111
        k(   52) = (   0.4000000   0.0000000   0.2054922), wk =   0.0111111
        k(   53) = (   0.4000000   0.0000000   0.4109844), wk =   0.0111111
        k(   54) = (   0.4000000   0.0000000   0.6164765), wk =   0.0111111
        k(   55) = (   0.4000000   0.0000000  -0.8219687), wk =   0.0111111
        k(   56) = (   0.4000000   0.1918096   0.0000000), wk =   0.0222222
        k(   57) = (   0.4000000   0.1918096   0.2054922), wk =   0.0222222
        k(   58) = (   0.4000000   0.1918096   0.4109844), wk =   0.0222222
        k(   59) = (   0.4000000   0.1918096   0.6164765), wk =   0.0222222
        k(   60) = (   0.4000000   0.1918096  -0.8219687), wk =   0.0222222
[...]
        k(   91) = (  -0.4000000   0.0000000   0.2054922), wk =   0.0111111
        k(   92) = (  -0.4000000   0.0000000   0.4109844), wk =   0.0111111
        k(   93) = (  -0.4000000   0.0000000   0.6164765), wk =   0.0111111
        k(   94) = (  -0.4000000  -0.1918096   0.2054922), wk =   0.0222222
        k(   95) = (  -0.4000000  -0.1918096   0.4109844), wk =   0.0222222
[...]
        k(   16) = (   0.0000000   0.3333333   0.0000000), wk =   0.0111111
        k(   17) = (  -0.0000000   0.3333333   0.1250000), wk =   0.0222222
        k(   18) = (  -0.0000000   0.3333333   0.2500000), wk =   0.0222222
        k(   19) = (  -0.0000000   0.3333333   0.3750000), wk =   0.0222222
        k(   20) = (   0.0000000   0.3333333  -0.5000000), wk =   0.0111111
        k(   21) = (   0.0000000   0.4444444   0.0000000), wk =   0.0111111
        k(   22) = (  -0.0000000   0.4444444   0.1250000), wk =   0.0222222
        k(   23) = (  -0.0000000   0.4444444   0.2500000), wk =   0.0222222
        k(   24) = (  -0.0000000   0.4444444   0.3750000), wk =   0.0222222
        k(   25) = (   0.0000000   0.4444444  -0.5000000), wk =   0.0111111
        k(   26) = (   0.2000000   0.0000000  -0.0000000), wk =   0.0111111
        k(   27) = (   0.2000000   0.0000000   0.1250000), wk =   0.0111111
        k(   28) = (   0.2000000   0.0000000   0.2500000), wk =   0.0111111
        k(   29) = (   0.2000000   0.0000000   0.3750000), wk =   0.0111111
        k(   30) = (   0.2000000   0.0000000  -0.5000000), wk =   0.0111111
        k(   31) = (   0.2000000   0.1111111  -0.0000000), wk =   0.0222222
        k(   32) = (   0.2000000   0.1111111   0.1250000), wk =   0.0222222
        k(   33) = (   0.2000000   0.1111111   0.2500000), wk =   0.0222222
        k(   34) = (   0.2000000   0.1111111   0.3750000), wk =   0.0222222
        k(   35) = (   0.2000000   0.1111111  -0.5000000), wk =   0.0222222
        k(   36) = (   0.2000000   0.2222222  -0.0000000), wk =   0.0222222
        k(   37) = (   0.2000000   0.2222222   0.1250000), wk =   0.0222222
        k(   38) = (   0.2000000   0.2222222   0.2500000), wk =   0.0222222
        k(   39) = (   0.2000000   0.2222222   0.3750000), wk =   0.0222222
        k(   40) = (   0.2000000   0.2222222  -0.5000000), wk =   0.0222222
        k(   41) = (   0.2000000   0.3333333  -0.0000000), wk =   0.0222222
        k(   42) = (   0.2000000   0.3333333   0.1250000), wk =   0.0222222
        k(   43) = (   0.2000000   0.3333333   0.2500000), wk =   0.0222222
        k(   44) = (   0.2000000   0.3333333   0.3750000), wk =   0.0222222
        k(   45) = (   0.2000000   0.3333333  -0.5000000), wk =   0.0222222
        k(   46) = (   0.2000000   0.4444444  -0.0000000), wk =   0.0222222
        k(   47) = (   0.2000000   0.4444444   0.1250000), wk =   0.0222222
        k(   48) = (   0.2000000   0.4444444   0.2500000), wk =   0.0222222
        k(   49) = (   0.2000000   0.4444444   0.3750000), wk =   0.0222222
        k(   50) = (   0.2000000   0.4444444  -0.5000000), wk =   0.0222222
        k(   51) = (   0.4000000   0.0000000  -0.0000000), wk =   0.0111111
        k(   52) = (   0.4000000   0.0000000   0.1250000), wk =   0.0111111
        k(   53) = (   0.4000000   0.0000000   0.2500000), wk =   0.0111111
        k(   54) = (   0.4000000   0.0000000   0.3750000), wk =   0.0111111
        k(   55) = (   0.4000000   0.0000000  -0.5000000), wk =   0.0111111
        k(   56) = (   0.4000000   0.1111111  -0.0000000), wk =   0.0222222
        k(   57) = (   0.4000000   0.1111111   0.1250000), wk =   0.0222222
        k(   58) = (   0.4000000   0.1111111   0.2500000), wk =   0.0222222
        k(   59) = (   0.4000000   0.1111111   0.3750000), wk =   0.0222222
        k(   60) = (   0.4000000   0.1111111  -0.5000000), wk =   0.0222222
[...]
        k(   91) = (  -0.4000000   0.0000000   0.1250000), wk =   0.0111111
        k(   92) = (  -0.4000000   0.0000000   0.2500000), wk =   0.0111111
        k(   93) = (  -0.4000000   0.0000000   0.3750000), wk =   0.0111111
        k(   94) = (  -0.4000000  -0.1111111   0.1250000), wk =   0.0222222
        k(   95) = (  -0.4000000  -0.1111111   0.2500000), wk =   0.0222222
        k(   96) = (  -0.4000000  -0.1111111   0.3750000), wk =   0.0222222
        k(   97) = (  -0.4000000  -0.2222222   0.1250000), wk =   0.0222222
        k(   98) = (  -0.4000000  -0.2222222   0.2500000), wk =   0.0222222
        k(   99) = (  -0.4000000  -0.2222222   0.3750000), wk =   0.0222222
        k(  100) = (  -0.4000000  -0.3333333   0.1250000), wk =   0.0222222
        k(  101) = (  -0.4000000  -0.3333333   0.2500000), wk =   0.0222222
        k(  102) = (  -0.4000000  -0.3333333   0.3750000), wk =   0.0222222
        k(  103) = (  -0.4000000  -0.4444444   0.1250000), wk =   0.0222222
        k(  104) = (  -0.4000000  -0.4444444   0.2500000), wk =   0.0222222
        k(  105) = (  -0.4000000  -0.4444444   0.3750000), wk =   0.0222222

     Largest allocated arrays     est. size (Mb)     dimensions
     Largest temporary arrays     est. size (Mb)     dimensions

     Check: negative/imaginary core charge=   -0.000010    0.000000

     Initial potential from superposition of free atoms

     starting charge  137.99648, renormalised to  138.00000
     Starting wfc are  112 randomized atomic wfcs
     Checking if some PAW data can be deallocated...
       node   20, deallocated PAW data for type:  1
       node   21, deallocated PAW data for type:  1
       node   22, deallocated PAW data for type:  1
       node   23, deallocated PAW data for type:  1

     Writing output data file fe4n.save

     Self-consistent Calculation

     iteration #  1     ecut=   140.00 Ry     beta=0.40
     Davidson diagonalization with overlap
     c_bands:  1 eigenvalues not converged
     c_bands:  1 eigenvalues not converged
     c_bands:  1 eigenvalues not converged
     c_bands:  1 eigenvalues not converged
     c_bands:  1 eigenvalues not converged
     c_bands:  1 eigenvalues not converged
     c_bands:  1 eigenvalues not converged
     c_bands:  1 eigenvalues not converged
     c_bands:  1 eigenvalues not converged
     c_bands:  1 eigenvalues not converged
     ethr =  1.00E-06,  avg # of iterations = 14.9

[...]

     total energy              =   -2674.33435078 Ry
     Harris-Foulkes estimate   =   -2674.33435078 Ry
     estimated scf accuracy    <          8.8E-11 Ry

     iteration # 23     ecut=   140.00 Ry     beta=0.40
     Davidson diagonalization with overlap
     ethr =  1.00E-13,  avg # of iterations =  4.0

     End of self-consistent calculation

[...]

          k = 0.3699 0.8245-0.9071 ( 17068 PWs)   bands (ev):

[...]

          k =-0.3699-0.8245 0.6803 ( 17053 PWs)   bands (ev):

   -66.6800 -66.6783 -66.6563 -66.6559 -66.6206 -66.6194 -65.9538 -65.9537
   -33.4784 -33.4310 -33.1407 -33.0919 -33.0111 -33.0098 -32.7147 -32.7101
   -32.7029 -32.6900 -32.6767 -32.6728 -32.5006 -32.4927 -32.4750 -32.4607
   -32.4070 -32.4062 -32.0378 -32.0347 -32.0122 -32.0086 -32.0051 -32.0003
     3.3183   3.5895  11.3781  11.4668  11.6719  11.7277  12.0496  12.7336
    16.1106  16.1667  17.0452  17.0812  17.3748  17.3931  17.6463  17.8777
    18.1028  18.2488  18.2955  18.4153  18.5300  18.5508  18.6035  18.6692
    18.7303  18.8622  19.0469  19.1929  19.2309  19.3155  19.4435  19.6907
    20.3628  20.5231  20.6112  20.7576  20.7906  20.9353  20.9865  21.0643
    21.1614  21.2927  21.4260  21.4870  21.8952  21.9450  23.0092  23.0221
    23.4723  23.7544  24.8870

     occupation numbers
     1.0000   1.0000   1.0000   1.0000   1.0000   1.0000   1.0000   1.0000
     1.0000   1.0000   1.0000   1.0000   1.0000   1.0000   1.0000   1.0000
     1.0000   1.0000   1.0000   1.0000   1.0000   1.0000   1.0000   1.0000
     1.0000   1.0000   1.0000   1.0000   1.0000   1.0000   1.0000   1.0000
     1.0000   1.0000   1.0000   1.0000   1.0000   1.0000   1.0000   1.0000
     1.0000   1.0000   1.0000   1.0000   1.0000   1.0000   1.0000   1.0000
     1.0000   1.0000   1.0000   1.0000   1.0000   1.0000   1.0000   1.0000
     1.0000   1.0000   1.0000   1.0000   1.0000   1.0000   1.0000   1.0000
     1.0198   1.0820   1.0410   0.6347   0.5105   0.1136   0.0531   0.0132
     0.0015   0.0000   0.0000   0.0000   0.0000   0.0000   0.0000   0.0000
     0.0000   0.0000   0.0000

     the Fermi energy is    20.8213 ev

!    total energy              =   -2674.33435078 Ry
     Harris-Foulkes estimate   =   -2674.33435078 Ry
     estimated scf accuracy    <          2.0E-11 Ry

     The total energy is the sum of the following terms:

     one-electron contribution =    -824.54166506 Ry
     hartree contribution      =     516.24222261 Ry
     xc contribution           =    -289.92127190 Ry
     ewald contribution        =   -1466.86484660 Ry
     one-center paw contrib.   =    -609.24958671 Ry
     smearing contrib. (-TS)   =       0.00079688 Ry

     convergence has been achieved in  23 iterations

     Forces acting on atoms (Ry/au):

     atom    1 type  1   force =     0.00000531    0.00000000   -0.00000291
     atom    2 type  1   force =    -0.00000531    0.00000000    0.00000291
     atom    3 type  1   force =     0.00000171   -0.00000000   -0.00000272
     atom    4 type  1   force =    -0.00000171    0.00000000    0.00000272
     atom    5 type  1   force =     0.00000000    0.00000000    0.00000000
     atom    6 type  1   force =     0.00000000    0.00000000    0.00000000
     atom    7 type  1   force =     0.00000000    0.00000000    0.00000000
     atom    8 type  1   force =     0.00000000    0.00000000    0.00000000
     atom    9 type  2   force =    -0.00000208    0.00000000    0.00000746
     atom   10 type  2   force =     0.00000208   -0.00000000   -0.00000746
     The non-local contrib.  to forces
     atom    1 type  1   force =     0.00000278    0.00000000   -0.08105141
     atom    2 type  1   force =    -0.00000278    0.00000000    0.08105141
     atom    3 type  1   force =    -0.00000171    0.00000000    0.02412891
     atom    4 type  1   force =     0.00000171    0.00000000   -0.02412891
     atom    5 type  1   force =     0.00000000    0.00000000    0.00000000
     atom    6 type  1   force =     0.00000000    0.00000000    0.00000000
     atom    7 type  1   force =     0.00000000    0.00000000    0.00000000
     atom    8 type  1   force =     0.00000000    0.00000000    0.00000000
     atom    9 type  2   force =    -0.00001538    0.00000000    0.11851427
     atom   10 type  2   force =     0.00001538    0.00000000   -0.11851427
     The ionic contribution  to forces
     atom    1 type  1   force =     0.00207084   -0.00000000   -3.09764835
     atom    2 type  1   force =    -0.00207084   -0.00000000    3.09764835
     atom    3 type  1   force =     0.00165324   -0.00000000    4.18621097
     atom    4 type  1   force =    -0.00165324   -0.00000000   -4.18621097
     atom    5 type  1   force =    -0.00000000   -0.00000000    0.00000000
     atom    6 type  1   force =     0.00000000   -0.00000000   -0.00000000
     atom    7 type  1   force =    -0.00000000   -0.00000000   -0.00000000
     atom    8 type  1   force =     0.00000000   -0.00000000    0.00000000
     atom    9 type  2   force =     0.00065432    0.00000000   -1.65086786
     atom   10 type  2   force =    -0.00065432   -0.00000000    1.65086786
     The local contribution  to forces
     atom    1 type  1   force =    -0.00206915   -0.00000000    3.18155897
     atom    2 type  1   force =     0.00206915   -0.00000000   -3.18155897
     atom    3 type  1   force =    -0.00165005    0.00000000   -4.21004863
     atom    4 type  1   force =     0.00165005    0.00000000    4.21004863
     atom    5 type  1   force =    -0.00000000    0.00000000    0.00000000
     atom    6 type  1   force =     0.00000000    0.00000000    0.00000000
     atom    7 type  1   force =     0.00000000   -0.00000000   -0.00000000
     atom    8 type  1   force =     0.00000000   -0.00000000   -0.00000000
     atom    9 type  2   force =    -0.00064038    0.00000000    1.53362063
     atom   10 type  2   force =     0.00064038    0.00000000   -1.53362063
     The core correction contribution to forces
     atom    1 type  1   force =     0.00000159    0.00000000   -0.00286467
     atom    2 type  1   force =    -0.00000159    0.00000000    0.00286467
     atom    3 type  1   force =     0.00000074    0.00000000   -0.00029396
     atom    4 type  1   force =    -0.00000074    0.00000000    0.00029396
     atom    5 type  1   force =     0.00000000    0.00000000   -0.00000000
     atom    6 type  1   force =    -0.00000000    0.00000000   -0.00000000
     atom    7 type  1   force =     0.00000000    0.00000000    0.00000000
     atom    8 type  1   force =    -0.00000000    0.00000000    0.00000000
     atom    9 type  2   force =     0.00000012   -0.00000000   -0.00125985
     atom   10 type  2   force =    -0.00000012   -0.00000000    0.00125985
     The Hubbard contrib.    to forces
     atom    1 type  1   force =     0.00000000    0.00000000    0.00000000
     atom    2 type  1   force =     0.00000000    0.00000000    0.00000000
     atom    3 type  1   force =     0.00000000    0.00000000    0.00000000
     atom    4 type  1   force =     0.00000000    0.00000000    0.00000000
     atom    5 type  1   force =     0.00000000    0.00000000    0.00000000
     atom    6 type  1   force =     0.00000000    0.00000000    0.00000000
     atom    7 type  1   force =     0.00000000    0.00000000    0.00000000
     atom    8 type  1   force =     0.00000000    0.00000000    0.00000000
     atom    9 type  2   force =     0.00000000    0.00000000    0.00000000
     atom   10 type  2   force =     0.00000000    0.00000000    0.00000000
     The SCF correction term to forces
     atom    1 type  1   force =    -0.00000076   -0.00000000    0.00000254
     atom    2 type  1   force =     0.00000076   -0.00000000   -0.00000254
     atom    3 type  1   force =    -0.00000050   -0.00000000   -0.00000001
     atom    4 type  1   force =     0.00000050    0.00000000    0.00000001
     atom    5 type  1   force =    -0.00000000   -0.00000000    0.00000000
     atom    6 type  1   force =     0.00000000   -0.00000000    0.00000000
     atom    7 type  1   force =     0.00000000   -0.00000000    0.00000000
     atom    8 type  1   force =    -0.00000000   -0.00000000    0.00000000
     atom    9 type  2   force =    -0.00000076    0.00000000    0.00000027
     atom   10 type  2   force =     0.00000076   -0.00000000   -0.00000027

     Total force =     0.000015     Total SCF correction =     0.000004
     SCF correction compared to forces is large: reduce conv_thr to get better values

     entering subroutine stress ...

          total   stress  (Ry/bohr**3)                   (kbar)     P=  300.32
   0.00204717   0.00000000  -0.00000003        301.15      0.00     -0.00
   0.00000000   0.00203864   0.00000000          0.00    299.89      0.00
  -0.00000003   0.00000000   0.00203880         -0.00      0.00    299.92

     kinetic stress (kbar)  88384.28      0.00     -0.01
                                0.00  88432.82      0.00
                               -0.01      0.00  88401.97

     local   stress (kbar)  73286.76     -0.00      0.23
                               -0.00  72557.51     -0.00
                                0.23     -0.00  74921.47

     nonloc. stress (kbar) -65045.03      0.00      0.00
                                0.00 -65040.70      0.00
                                0.00      0.00 -65005.27

     hartree stress (kbar)  41601.15      0.00     -0.09
                                0.00  41918.32     -0.00
                               -0.09     -0.00  40933.15

     exc-cor stress (kbar)  -3259.72     -0.00     -0.00
                               -0.00  -3258.84     -0.00
                               -0.00     -0.00  -3259.47

     corecor stress (kbar) -17013.34     -0.00      0.00
                               -0.00 -17016.09      0.00
                                0.00      0.00 -17014.92

     ewald   stress (kbar)-117652.96     -0.00     -0.14
                               -0.00-117293.12      0.00
                               -0.14      0.00-118677.01

     hubbard stress (kbar)      0.00      0.00      0.00
                                0.00      0.00      0.00
                                0.00      0.00      0.00

     london  stress (kbar)      0.00      0.00      0.00
                                0.00      0.00      0.00
                                0.00      0.00      0.00

     XDM     stress (kbar)      0.00      0.00      0.00
                                0.00      0.00      0.00
                                0.00      0.00      0.00

     dft-nl  stress (kbar)      0.00      0.00      0.00
                                0.00      0.00      0.00
                                0.00      0.00      0.00

     Writing output data file fe4n.save

     General routines

     Parallel routines

     PAW routines

   This run was terminated on:  21:13:28  16Nov2020

   JOB DONE.